La1 Ta1 N2 O1                           
   1.0000000000000000     
     0.0000000000000000    0.0000000000000000    4.1245999228083079
     4.1246199026582593    0.0000000000000000    0.0000000000000000
    -0.0000000000000000    3.9894707617366518    0.0000000000000000
   La   Ta   N    O 
     1     1     2     1
Direct
 -0.0000000000000000  0.0000000000000000 -0.0000000000000000
  0.5000000000000000  0.5000000000000000  0.5000000000000000
  0.5000000000000000 -0.0000000000000000  0.5000000000000000
 -0.0000000000000000  0.5000000000000000  0.5000000000000000
  0.5000000000000000  0.5000000000000000 -0.0000000000000000

  0.00000000E+00  0.00000000E+00  0.00000000E+00
  0.00000000E+00  0.00000000E+00  0.00000000E+00
  0.00000000E+00  0.00000000E+00  0.00000000E+00
  0.00000000E+00  0.00000000E+00  0.00000000E+00
  0.00000000E+00  0.00000000E+00  0.00000000E+00
