Na8 U4 O16
1.0
5.842548 0.000000 0.000000
0.000000 6.008407 0.000000
0.000000 0.000000 11.904064
Na U O
8 4 16
direct
0.000798 0.053189 0.336078 Na
0.500798 0.446811 0.663922 Na
0.999202 0.553189 0.163922 Na
0.499202 0.946811 0.836078 Na
0.500798 0.053189 0.163922 Na
0.000798 0.446811 0.836078 Na
0.499202 0.553189 0.336078 Na
0.999202 0.946811 0.663922 Na
0.000000 0.000000 0.000000 U
0.500000 0.500000 0.000000 U
0.000000 0.500000 0.500000 U
0.500000 0.000000 0.500000 U
0.606656 0.964395 0.346500 O
0.106656 0.535605 0.653500 O
0.393344 0.464395 0.153500 O
0.893344 0.035605 0.846500 O
0.393344 0.035605 0.653500 O
0.893344 0.464395 0.346500 O
0.606656 0.535605 0.846500 O
0.106656 0.964395 0.153500 O
0.795708 0.208810 0.545018 O
0.295708 0.291190 0.454982 O
0.204292 0.708810 0.954982 O
0.704292 0.791190 0.045018 O
0.295708 0.208810 0.954982 O
0.795708 0.291190 0.045018 O
0.704292 0.708810 0.545018 O
0.204292 0.791190 0.454982 O

0.000000 0.000000 0.000000
0.000000 0.000000 0.000000
0.000000 0.000000 0.000000
0.000000 0.000000 0.000000
0.000000 0.000000 0.000000
0.000000 0.000000 0.000000
0.000000 0.000000 0.000000
0.000000 0.000000 0.000000
0.000000 0.000000 0.000000
0.000000 0.000000 0.000000
0.000000 0.000000 0.000000
0.000000 0.000000 0.000000
0.000000 0.000000 0.000000
0.000000 0.000000 0.000000
0.000000 0.000000 0.000000
0.000000 0.000000 0.000000
0.000000 0.000000 0.000000
0.000000 0.000000 0.000000
0.000000 0.000000 0.000000
0.000000 0.000000 0.000000
0.000000 0.000000 0.000000
0.000000 0.000000 0.000000
0.000000 0.000000 0.000000
0.000000 0.000000 0.000000
0.000000 0.000000 0.000000
0.000000 0.000000 0.000000
0.000000 0.000000 0.000000
0.000000 0.000000 0.000000
