Bi6 Se6                                 
   1.00000000000000     
     4.2281928984039610    0.0000000000387765    0.0000000000028142
    -2.1141398264772882    3.6618032157833111    0.0000000000003756
     0.0000000000009103    0.0000000000001269   22.5852513812291278
   Bi   Se
     6     6
Direct
  0.0000000000074228  0.0000000000040432  0.8808903784977030
  0.0000000000074228  0.0000000000040432  0.1191096215022898
  0.6666666661801354  0.3333333330683264  0.7152172844690835
  0.3333333338198646  0.6666666669316736  0.2847827155309164
  0.6666666672754177  0.3333333336649200  0.4586765964843292
  0.3333333327245823  0.6666666663350801  0.5413234035156708
  0.6666666659562475  0.3333333329463760  0.9487492743364021
  0.3333333340437525  0.6666666670536240  0.0512507256635979
  0.6666666674181562  0.3333333337426687  0.2038181770714345
  0.3333333325818438  0.6666666662573313  0.7961818229285654
  0.0000000002479359  0.0000000001350492  0.6445312718923798
  0.0000000002479359  0.0000000001350492  0.3554687281076201
