Na Cl
   1.00000000000000
     5.6903014761756712    0.0000000000000000    0.0000000000000000
     0.0000000000000000    5.6903014761756712    0.0000000000000000
     0.0000000000000000    0.0000000000000000    5.6903014761756712
  Na  Cl
   4   4
Direct
  0.0000000000000000  0.0000000000000000  0.0000000000000000
  0.0000000000000000  0.5000000000000000  0.5000000000000000
  0.5000000000000000  0.0000000000000000  0.5000000000000000
  0.5000000000000000  0.5000000000000000  0.0000000000000000
  0.5000000000000000  0.5000000000000000  0.5000000000000000
  0.5000000000000000  0.0000000000000000  0.0000000000000000
  0.0000000000000000  0.5000000000000000  0.0000000000000000
  0.0000000000000000  0.0000000000000000  0.5000000000000000
