Si8                                     
   1.00000000000000     
     5.6029196758839159   -0.0603693499677626    0.1110429263825206
    -0.0000000000000100    5.3747130151091689    0.0034014855406440
     0.0000000000000068   -0.0000000000000120    5.4692974031883859
   Si
     8
Direct
  0.6539918994283490  0.8969172295968553  0.0676681342693018
 -0.2312437400904284  0.5904002014657854  0.3939526918410268
  0.8235113603041605  0.3274668347998835  0.7376879470910200
  0.0234540394811329 -0.0006436675535249 -0.1173920341194730
  0.4494229071161935  0.8354718770893421  0.6950789454078377
  0.5785762144444008  0.4746645739302746  0.0005135261381124
  0.0419959757024323  0.1291469345761019  0.3339785656099613
  0.5094723570400191  0.1350290791632852  0.4745741352855470
Lattice velocities and vectors
           1
  0.11376865E-02 -0.20054010E-02  0.10745440E-02
 -0.80980926E-03 -0.54988058E-03 -0.11593411E-02
  0.40755213E-03 -0.91838934E-03  0.10978311E-02
  0.56062799E+01 -0.68862342E-01  0.11555075E+00
 -0.98606785E-14  0.53730639E+01 -0.27835157E-02
  0.64062547E-14 -0.12698742E-13  0.54725901E+01
 
 -0.26486997E-01  0.15289665E-01 -0.24183306E-01
 -0.21835373E-01 -0.48466524E-02  0.34963571E-02
 -0.36389021E-02 -0.28571877E-02 -0.18926241E-02
  0.49389009E-02  0.28594559E-02 -0.48140896E-02
  0.20044174E-01 -0.32290274E-03  0.67317795E-02
  0.51447245E-02  0.75356806E-02 -0.13128815E-01
 -0.12148614E-01 -0.19846176E-01  0.16721524E-01
 -0.73911890E-02  0.29807035E-02 -0.42831313E-02
 
           1
   3.00000000000000     
  0.10000000E+01  0.00000000E+00  0.00000000E+00  0.00000000E+00
  0.63981833E+00  0.90527242E+00  0.54714689E-01
  0.75707184E+00  0.58754437E+00  0.39611461E+00
  0.82156413E+00  0.32584659E+00  0.73669073E+00
  0.26096915E-01  0.98675463E-03  0.87991397E+00
  0.46014883E+00  0.83542905E+00  0.69854272E+00
  0.58132923E+00  0.47890733E+00  0.99326052E+00
  0.35495080E-01  0.11798269E+00  0.34327666E+00
  0.50551723E+00  0.13664264E+00  0.47231051E+00
  0.00000000E+00  0.00000000E+00  0.00000000E+00
  0.00000000E+00  0.00000000E+00  0.00000000E+00
  0.00000000E+00  0.00000000E+00  0.00000000E+00
  0.00000000E+00  0.00000000E+00  0.00000000E+00
  0.00000000E+00  0.00000000E+00  0.00000000E+00
  0.00000000E+00  0.00000000E+00  0.00000000E+00
  0.00000000E+00  0.00000000E+00  0.00000000E+00
  0.00000000E+00  0.00000000E+00  0.00000000E+00
  0.00000000E+00  0.00000000E+00  0.00000000E+00
  0.00000000E+00  0.00000000E+00  0.00000000E+00
  0.00000000E+00  0.00000000E+00  0.00000000E+00
  0.00000000E+00  0.00000000E+00  0.00000000E+00
  0.00000000E+00  0.00000000E+00  0.00000000E+00
  0.00000000E+00  0.00000000E+00  0.00000000E+00
  0.00000000E+00  0.00000000E+00  0.00000000E+00
  0.00000000E+00  0.00000000E+00  0.00000000E+00
