$cell vectors
1.0
 10.8649948875636575    0.0000000000000000    0.0000000000000000
  0.0000000000000000   10.8649948875636575    0.0000000000000000
  0.0000000000000000    0.0000000000000053   28.3569866568469990
 36 16 8 48
Direct
  0.8306000000000002    0.5302999999999998    0.0000000000000000 # Hg1
  0.1995000000000002    0.1106000000000001    0.1977999999999999 # Hg2
  0.8652999999999998    0.2693999999999996    0.2025000000000000 # Hg3
  0.0282999999999998    0.2667000000000000    0.0731000000000000 # Hg4
  0.5629999999999999    0.4907999999999999    0.1933000000000000 # Hg5
  0.5529999999999999    0.6910999999999999    0.0704999999999999 # Hg6
  0.4264000000000002    0.8336999999999999    0.1989999999999999 # Hg7
  0.2410000000000000    0.5758000000000000    0.1322000000000000 # Hg8
  0.8978000000000000    0.9681999999999997    0.1385000000000001 # Hg9
  0.4697000000000001    0.8306000000000003    0.7500000000000000 # Hg10
  0.8894000000000003    0.1994999999999998    0.9477999999999998 # Hg11
  0.7306000000000001    0.8652999999999998    0.9525000000000000 # Hg12
  0.7333000000000003    0.0282999999999999    0.8230999999999997 # Hg13
  0.5092000000000003    0.5629999999999999    0.9433000000000000 # Hg14
  0.3089000000000001    0.5529999999999999    0.8204999999999999 # Hg15
  0.1663000000000003    0.4263999999999997    0.9489999999999998 # Hg16
  0.4242000000000004    0.2410000000000000    0.8822000000000000 # Hg17
  0.0318000000000001    0.8977999999999999    0.8884999999999998 # Hg18
  0.1694000000000003    0.4696999999999999    0.5000000000000000 # Hg19
  0.8005000000000001    0.8894000000000005    0.6977999999999999 # Hg20
  0.1347000000000001    0.7305999999999998    0.7025000000000000 # Hg21
  0.9717000000000000    0.7332999999999994    0.5730999999999999 # Hg22
  0.4370000000000004    0.5091999999999995    0.6932999999999999 # Hg23
  0.4469999999999999    0.3088999999999998    0.5704999999999999 # Hg24
  0.5736000000000001    0.1663000000000000    0.6990000000000000 # Hg25
  0.7590000000000000    0.4242000000000000    0.6321999999999999 # Hg26
  0.1021999999999999    0.0317999999999998    0.6385000000000001 # Hg27
  0.5303000000000003    0.1694000000000002    0.2500000000000001 # Hg28
  0.1106000000000002    0.8004999999999999    0.4477999999999998 # Hg29
  0.2694000000000003    0.1346999999999999    0.4525000000000001 # Hg30
  0.2667000000000001    0.9716999999999999    0.3230999999999999 # Hg31
  0.4908000000000000    0.4369999999999997    0.4433000000000000 # Hg32
  0.6911000000000004    0.4469999999999997    0.3205000000000001 # Hg33
  0.8337000000000000    0.5735999999999999    0.4490000000000001 # Hg34
  0.5758000000000001    0.7589999999999998    0.3821999999999999 # Hg35
  0.9681999999999998    0.1021999999999997    0.3885000000000000 # Hg36
  0.6588000000000005    0.6768000000000002    0.9960000000000000 # As1
  0.9860000000000000    0.3654999999999997    0.9979999999999998 # As2
  0.4515000000000001    0.6516000000000001    0.1491000000000000 # As3
  0.0150000000000000    0.1584000000000002    0.1519000000000000 # As4
  0.3232000000000004    0.6588000000000002    0.7460000000000000 # As5
  0.6345000000000001    0.9860000000000001    0.7479999999999998 # As6
  0.3484000000000003    0.4514999999999997    0.8991000000000000 # As7
  0.8416000000000001    0.0150000000000000    0.9018999999999999 # As8
  0.3411999999999998    0.3231999999999997    0.4959999999999998 # As9
  0.0140000000000000    0.6344999999999998    0.4979999999999999 # As10
  0.5485000000000002    0.3483999999999999    0.6490999999999999 # As11
  0.9850000000000005    0.8415999999999998    0.6518999999999999 # As12
  0.6768000000000000    0.3411999999999997    0.2459999999999999 # As13
  0.3655000000000002    0.0139999999999999    0.2480000000000000 # As14
  0.6516000000000002    0.5485000000000000    0.3990999999999998 # As15
  0.1584000000000003    0.9850000000000003    0.4019000000000001 # As16
  0.2269000000000000    0.8642999999999997    0.0074000000000000 # Bi1
  0.5702000000000004    0.1880999999999999    0.0616000000000001 # Bi2
  0.1357000000000002    0.2268999999999997    0.7574000000000000 # Bi3
  0.8119000000000004    0.5701999999999999    0.8115999999999998 # Bi4
  0.7730999999999998    0.1356999999999999    0.5074000000000000 # Bi5
  0.4298000000000001    0.8119000000000002    0.5616000000000000 # Bi6
  0.8642999999999997    0.7730999999999997    0.2573999999999999 # Bi7
  0.1880999999999999    0.4298000000000000    0.3115999999999999 # Bi8
  0.9902000000000004    0.7875000000000002    0.0096000000000000 # Br1
  0.4844000000000002    0.9570000000000000    0.0178000000000000 # Br2
  0.0973999999999998    0.8289999999999998    0.2289000000000000 # Br3
  0.6105000000000002    0.2968999999999995    0.9707999999999999 # Br4
  0.2947000000000001    0.6044000000000002    0.0233000000000000 # Br5
  0.8016000000000002    0.0590000000000000    0.0434000000000002 # Br6
  0.3389000000000000    0.2908000000000000    0.0880000000000001 # Br7
  0.7049000000000001    0.3860999999999998    0.1000000000000001 # Br8
  0.2059000000000000    0.9009999999999999    0.1020000000000000 # Br9
  0.0229000000000000    0.5218000000000000    0.1251000000000000 # Br10
  0.7928999999999999    0.7640999999999998    0.1457999999999999 # Br11
  0.5889000000000000    0.0645000000000002    0.1485000000000000 # Br12
  0.2125000000000002    0.9902000000000001    0.7596000000000003 # Br13
  0.0430000000000005    0.4843999999999998    0.7678000000000000 # Br14
  0.1710000000000000    0.0973999999999998    0.9788999999999999 # Br15
  0.7031000000000004    0.6104999999999998    0.7208000000000000 # Br16
  0.3956000000000002    0.2946999999999997    0.7732999999999997 # Br17
  0.9410000000000004    0.8015999999999999    0.7934000000000000 # Br18
  0.7092000000000003    0.3388999999999996    0.8379999999999999 # Br19
  0.6139000000000003    0.7049000000000001    0.8499999999999998 # Br20
  0.0990000000000000    0.2058999999999996    0.8520000000000000 # Br21
  0.4782000000000003    0.0228999999999996    0.8750999999999999 # Br22
  0.2359000000000001    0.7929000000000000    0.8957999999999998 # Br23
  0.9355000000000001    0.5889000000000001    0.8984999999999999 # Br24
  0.0098000000000001    0.2125000000000000    0.5096000000000001 # Br25
  0.5156000000000002    0.0430000000000007    0.5178000000000000 # Br26
  0.9026000000000002    0.1710000000000001    0.7288999999999999 # Br27
  0.3895000000000002    0.7031000000000002    0.4708000000000001 # Br28
  0.7053000000000004    0.3955999999999999    0.5232999999999999 # Br29
  0.1984000000000002    0.9410000000000002    0.5433999999999999 # Br30
  0.6611000000000005    0.7091999999999999    0.5880000000000001 # Br31
  0.2951000000000004    0.6139000000000000    0.5999999999999996 # Br32
  0.7941000000000003    0.0989999999999997    0.6020000000000000 # Br33
  0.9770999999999996    0.4781999999999995    0.6250999999999999 # Br34
  0.2071000000000000    0.2358999999999997    0.6457999999999999 # Br35
  0.4111000000000004    0.9355000000000004    0.6484999999999999 # Br36
  0.7875000000000002    0.0098000000000000    0.2595999999999999 # Br37
  0.9570000000000000    0.5156000000000001    0.2678000000000000 # Br38
  0.8290000000000000    0.9026000000000000    0.4789000000000000 # Br39
  0.2969000000000000    0.3894999999999996    0.2208000000000001 # Br40
  0.6044000000000002    0.7053000000000003    0.2733000000000000 # Br41
  0.0590000000000000    0.1983999999999997    0.2933999999999999 # Br42
  0.2908000000000001    0.6610999999999998    0.3379999999999999 # Br43
  0.3860999999999999    0.2950999999999998    0.3499999999999999 # Br44
  0.9009999999999999    0.7941000000000000    0.3520000000000000 # Br45
  0.5218000000000002    0.9770999999999994    0.3751000000000000 # Br46
  0.7640999999999999    0.2070999999999998    0.3958000000000001 # Br47
  0.0645000000000002    0.4110999999999997    0.3984999999999999 # Br48
