$cell vectors
1.0
 10.8099949134434539    0.0000000000000000    0.0000000000000000
  0.0000000000000000   10.8099949134434539    0.0000000000000000
  0.0000000000000000    0.0000000000000000    6.8099967956105401
 8 32 24
Direct
  0.2640000000000003    0.9860000000000002    0.2300000000000001 # P1
  0.9860000000000002    0.7360000000000002    0.7699999999999999 # P2
  0.7360000000000002    0.0139999999999998    0.2300000000000001 # P3
  0.0140000000000003    0.2640000000000003    0.7699999999999999 # P4
  0.7640000000000002    0.5140000000000002    0.2700000000000002 # P5
  0.2360000000000002    0.4860000000000002    0.2700000000000002 # P6
  0.5140000000000002    0.2360000000000002    0.7299999999999998 # P7
  0.4860000000000002    0.7640000000000002    0.7299999999999998 # P8
  0.1650000000000001    0.9180000000000004    0.3560000000000001 # O1
  0.3739999999999999    0.8959999999999997    0.2069999999999999 # O2
  0.2100000000000003    1.0170000000000001    0.0240000000000001 # O3
  0.3050000000000000    1.1050000000000002    0.3329999999999998 # O4
  0.9180000000000004    0.8350000000000003    0.6439999999999999 # O5
  0.8959999999999997    0.6260000000000000    0.7930000000000000 # O6
  1.0170000000000001    0.7900000000000003    0.9760000000000000 # O7
  1.1050000000000002    0.6950000000000003    0.6670000000000004 # O8
  0.8350000000000003    0.0820000000000000    0.3560000000000001 # O9
  0.6260000000000000    0.1040000000000001    0.2069999999999999 # O10
  0.7900000000000003   -0.0170000000000001    0.0240000000000001 # O11
  0.6950000000000000   -0.1050000000000002    0.3329999999999998 # O12
  0.0820000000000000    0.1650000000000001    0.6439999999999999 # O13
  0.1040000000000001    0.3739999999999999    0.7930000000000000 # O14
 -0.0170000000000001    0.2100000000000003    0.9760000000000000 # O15
 -0.1050000000000002    0.3050000000000000    0.6670000000000004 # O16
  0.6650000000000001    0.5820000000000001    0.1440000000000003 # O17
  0.8740000000000000    0.6040000000000000    0.2929999999999997 # O18
  0.7099999999999999    0.4830000000000000    0.4759999999999995 # O19
  0.8050000000000000    0.3950000000000003    0.1669999999999998 # O20
  0.3349999999999998    0.4179999999999999    0.1440000000000003 # O21
  0.1260000000000001    0.3959999999999999    0.2929999999999997 # O22
  0.2900000000000002    0.5170000000000001    0.4759999999999995 # O23
  0.1949999999999999    0.6050000000000002    0.1669999999999998 # O24
  0.5820000000000001    0.3349999999999998    0.8559999999999998 # O25
  0.6040000000000000    0.1260000000000001    0.7069999999999995 # O26
  0.4830000000000000    0.2900000000000002    0.5239999999999997 # O27
  0.3950000000000003    0.1949999999999999    0.8329999999999995 # O28
  0.4179999999999999    0.6650000000000001    0.8559999999999998 # O29
  0.3959999999999999    0.8740000000000000    0.7069999999999995 # O30
  0.5170000000000001    0.7099999999999999    0.5239999999999997 # O31
  0.6050000000000002    0.8050000000000000    0.8329999999999995 # O32
  0.2600000000000000    0.0359999999999998    0.6889999999999997 # Na1
  0.2159999999999998    0.2429999999999999    0.0360000000000001 # Na2
  0.0000000000000000    0.0000000000000000    0.0000000000000000 # Na3
  0.0000000000000000    0.0000000000000000    0.4999999999999997 # Na4
  0.0000000000000000    0.5000000000000000    0.0390000000000003 # Na5
  0.0359999999999998    0.7400000000000000    0.3110000000000001 # Na6
  0.2429999999999999    0.7840000000000000    0.9640000000000000 # Na7
  0.5000000000000000    0.0000000000000000    0.9609999999999997 # Na8
  0.7400000000000000    0.9640000000000001    0.6889999999999997 # Na9
  0.7840000000000000    0.7570000000000001    0.0360000000000001 # Na10
  0.9640000000000001    0.2600000000000000    0.3110000000000001 # Na11
  0.7570000000000001    0.2159999999999998    0.9640000000000000 # Na12
  0.7599999999999999    0.4640000000000001    0.8109999999999998 # Na13
  0.7159999999999999    0.2570000000000001    0.4639999999999996 # Na14
  0.5000000000000000    0.5000000000000000    0.4999999999999997 # Na15
  0.5000000000000000    0.5000000000000000    0.0000000000000000 # Na16
  0.5000000000000000    0.0000000000000000    0.4610000000000001 # Na17
  0.2400000000000001    0.5360000000000003    0.8109999999999998 # Na18
  0.2840000000000001    0.7430000000000002    0.4639999999999996 # Na19
  0.4640000000000001    0.2400000000000001    0.1890000000000003 # Na20
  0.2570000000000001    0.2840000000000001    0.5359999999999998 # Na21
  0.0000000000000000    0.5000000000000000    0.5389999999999999 # Na22
  0.5360000000000003    0.7599999999999999    0.1890000000000003 # Na23
  0.7430000000000002    0.7159999999999999    0.5359999999999998 # Na24
