$cell vectors
1.0
 10.1814952091789586    0.0000000000000000    0.0000000000000000
  0.0000000000000000   10.1814952091789586    0.0000000000000000
  0.0000000000000000    0.0000000000000000    5.2949975084813232
 30
Direct
  0.4999999999999998    0.0000000000000000    0.2472999999999998 # Ta1
  0.7597999999999998    0.0657999999999998    0.2492999999999998 # Ta2
  0.4318999999999998    0.7380000000000001    0.2518000000000004 # Ta3
  0.0341000000000002    0.1278000000000003    0.2519999999999998 # Ta4
  0.3703999999999999    0.4649999999999997    0.2487000000000003 # Ta5
  0.1064000000000002    0.3960000000000001    0.2519000000000001 # Ta6
  0.8179999999999998    0.3183000000000000    0.0004999999999997 # Ta7
  0.8178000000000001    0.3183000000000000    0.5004999999999997 # Ta8
  0.0000000000000000    0.4999999999999998    0.7527000000000000 # Ta9
  0.0657999999999998    0.2402000000000001    0.7507000000000001 # Ta10
  0.7380000000000001    0.5680999999999996    0.7481999999999995 # Ta11
  0.1278000000000003    0.9658999999999998    0.7480000000000000 # Ta12
  0.4649999999999997    0.6296000000000002    0.7512999999999996 # Ta13
  0.3960000000000001    0.8935999999999996    0.7480999999999998 # Ta14
  0.3183000000000000    0.1820000000000001    0.9995000000000003 # Ta15
  0.3183000000000000    0.1821999999999999    0.4995000000000002 # Ta16
  0.2402000000000001    0.9341999999999996    0.2492999999999998 # Ta17
  0.5681000000000003    0.2619999999999998    0.2518000000000004 # Ta18
  0.9658999999999998    0.8721999999999996    0.2519999999999998 # Ta19
  0.6296000000000002    0.5350000000000001    0.2487000000000003 # Ta20
  0.8935999999999996    0.6040000000000000    0.2519000000000001 # Ta21
  0.1820000000000001    0.6817000000000001    0.0004999999999997 # Ta22
  0.1821999999999999    0.6817000000000001    0.5004999999999997 # Ta23
  0.9341999999999996    0.7597999999999998    0.7507000000000001 # Ta24
  0.2619999999999998    0.4318999999999998    0.7481999999999995 # Ta25
  0.8721999999999996    0.0341000000000002    0.7480000000000000 # Ta26
  0.5350000000000001    0.3703999999999999    0.7512999999999996 # Ta27
  0.6040000000000000    0.1064000000000002    0.7480999999999998 # Ta28
  0.6817000000000001    0.8179999999999998    0.9995000000000003 # Ta29
  0.6817000000000001    0.8178000000000001    0.4995000000000002 # Ta30
