$cell vectors
1.0
  9.6929954390386115    0.0000000000000000    0.0000000000000000
  0.0000000000000000    9.6929954390386115    0.0000000000000000
  0.0000000000000000    0.0000000000000000    5.9849971838075025
 16 32
Direct
  0.2620999999999999    0.5076000000000002    0.0298999999999999 # Nb1
  0.2455000000000003    0.4908999999999999    0.4803999999999999 # Nb2
  0.7620999999999998    0.0076000000000002    0.5298999999999998 # Nb3
  0.7455000000000003    0.9908999999999998    0.9803999999999998 # Nb4
  0.4924000000000003    0.7620999999999998    0.2799000000000003 # Nb5
  0.5091000000000000    0.7455000000000003    0.7303999999999994 # Nb6
  0.9924000000000002    0.2620999999999999    0.7798999999999995 # Nb7
  0.0091000000000000    0.2455000000000003    0.2303999999999995 # Nb8
  0.7378999999999999    0.4923999999999997    0.0298999999999999 # Nb9
  0.7545000000000002    0.5091000000000000    0.4803999999999999 # Nb10
  0.2379000000000000    0.9924000000000002    0.5298999999999998 # Nb11
  0.2545000000000003    0.0091000000000000    0.9803999999999998 # Nb12
  0.5076000000000002    0.2379000000000000    0.2799000000000003 # Nb13
  0.4908999999999999    0.2545000000000003    0.7303999999999994 # Nb14
  0.0076000000000002    0.7378999999999999    0.7798999999999995 # Nb15
  0.9908999999999998    0.7545000000000002    0.2303999999999995 # Nb16
  0.3973999999999999    0.1497000000000002    0.0077000000000004 # O1
  0.1102000000000003    0.3642000000000000    0.9919999999999998 # O2
  0.6085999999999998    0.3609000000000002    0.5064000000000002 # O3
  0.6500000000000001    0.1037999999999998    0.2483999999999997 # O4
  0.8973999999999998    0.6497000000000001    0.5076999999999995 # O5
  0.6101999999999997    0.8641999999999999    0.4919999999999999 # O6
  0.1085999999999999    0.8609000000000001    0.0064000000000003 # O7
  0.1500000000000002    0.6038000000000003    0.7483999999999998 # O8
  0.8503000000000003    0.8973999999999998    0.2576999999999999 # O9
  0.6358000000000000    0.6102000000000003    0.2420000000000003 # O10
  0.6391000000000002    0.1085999999999999    0.7563999999999997 # O11
  0.8962000000000001    0.1499999999999997    0.4984000000000001 # O12
  0.3503000000000003    0.3973999999999999    0.7576999999999998 # O13
  0.1358000000000001    0.1102000000000003    0.7419999999999994 # O14
  0.1391000000000003    0.6085999999999998    0.2563999999999998 # O15
  0.3962000000000001    0.6500000000000001    0.9983999999999992 # O16
  0.6026000000000000    0.8503000000000003    0.0077000000000004 # O17
  0.8898000000000000    0.6358000000000000    0.9919999999999998 # O18
  0.3914000000000001    0.6391000000000002    0.5064000000000002 # O19
  0.3500000000000003    0.8962000000000001    0.2483999999999997 # O20
  0.1026000000000001    0.3503000000000003    0.5076999999999995 # O21
  0.3898000000000002    0.1358000000000001    0.4919999999999999 # O22
  0.8914000000000001    0.1390999999999998    0.0064000000000003 # O23
  0.8500000000000002    0.3962000000000001    0.7483999999999998 # O24
  0.1497000000000002    0.1026000000000001    0.2576999999999999 # O25
  0.3642000000000000    0.3898000000000002    0.2420000000000003 # O26
  0.3609000000000002    0.8914000000000001    0.7563999999999997 # O27
  0.1037999999999998    0.8500000000000002    0.4984000000000001 # O28
  0.6497000000000001    0.6026000000000000    0.7576999999999998 # O29
  0.8641999999999999    0.8898000000000000    0.7419999999999994 # O30
  0.8609000000000001    0.3914000000000001    0.2563999999999998 # O31
  0.6038000000000003    0.3500000000000003    0.9983999999999992 # O32
