$cell vectors
1.0
  5.8519972463895558    0.0000000000000000    0.0000000000000000
  0.0000000000000000    5.8519972463895558    0.0000000000000000
  0.0000000000000000    0.0000000000000000   14.2339933023084324
 4 2 4 8
Direct
  0.2395999999999999    0.2395999999999999    0.0000000000000000 # Cs1
  0.7604000000000002    0.7604000000000002    0.0000000000000000 # Cs2
  0.7604000000000002    0.2395999999999999    0.5000000000000000 # Cs3
  0.2395999999999999    0.7604000000000002    0.5000000000000000 # Cs4
  0.5000000000000000    0.5000000000000000    0.2500000000000000 # Ti1
  0.5000000000000000    0.5000000000000000    0.7500000000000002 # Ti2
  0.0000000000000000    0.5000000000000000    0.2500000000000000 # Cu1
  0.0000000000000000    0.5000000000000000    0.7500000000000002 # Cu2
  0.5000000000000000    0.0000000000000000    0.7500000000000002 # Cu3
  0.5000000000000000    0.0000000000000000    0.2500000000000000 # Cu4
  0.2604000000000001    0.2604000000000001    0.3450000000000001 # Se1
  0.7396000000000001    0.2604000000000001    0.8449999999999998 # Se2
  0.2604000000000001    0.7396000000000001    0.1550000000000000 # Se3
  0.7396000000000001    0.2604000000000001    0.1550000000000000 # Se4
  0.2604000000000001    0.7396000000000001    0.8449999999999998 # Se5
  0.2604000000000001    0.2604000000000001    0.6550000000000001 # Se6
  0.7396000000000001    0.7396000000000001    0.3450000000000001 # Se7
  0.7396000000000001    0.7396000000000001    0.6550000000000001 # Se8
