$cell vectors
1.0
 11.3499946593508980    0.0000000000000000    0.0000000000000000
  0.0000000000000000   11.3499946593508980    0.0000000000000000
  0.0000000000000000    0.0000000000000000    6.1899970873464403
 6 8 16
Direct
  0.2499999999999998    0.2499999999999998    0.2499999999999995 # Ba1
  0.2500000000000003    0.7499999999999999    0.7499999999999994 # Ba2
  0.7499999999999999    0.7499999999999999    0.7499999999999994 # Ba3
  0.7499999999999999    0.2499999999999998    0.2499999999999995 # Ba4
  0.7499999999999999    0.2500000000000003    0.7499999999999994 # Ba5
  0.2500000000000003    0.7499999999999999    0.2499999999999995 # Ba6
  0.9953000000000001    0.9953000000000001    0.2499999999999995 # Al1
  0.0047000000000003    0.0047000000000003    0.7499999999999994 # Al2
  0.5046999999999998    0.9953000000000001    0.2499999999999995 # Al3
  0.4952999999999996    0.0047000000000003    0.7499999999999994 # Al4
  0.5046999999999998    0.5046999999999998    0.2499999999999995 # Al5
  0.4952999999999996    0.4953000000000001    0.7499999999999994 # Al6
  0.9953000000000001    0.5046999999999998    0.2499999999999995 # Al7
  0.0047000000000003    0.4953000000000001    0.7499999999999994 # Al8
  0.1605000000000000    0.9966000000000002    0.0079000000000002 # Se1
  0.8395000000000000    0.0034000000000000    0.9920999999999999 # Se2
  0.5034000000000000    0.1605000000000000    0.0079000000000002 # Se3
  0.4966000000000000    0.8395000000000000    0.9920999999999999 # Se4
  0.3395000000000000    0.5034000000000000    0.0079000000000002 # Se5
  0.6605000000000000    0.4966000000000000    0.9920999999999999 # Se6
  0.9966000000000002    0.3395000000000000    0.0079000000000002 # Se7
  0.0034000000000000    0.6605000000000000    0.9920999999999999 # Se8
  0.1605000000000000    0.5034000000000000    0.4920999999999998 # Se9
  0.8395000000000000    0.4966000000000000    0.5079000000000001 # Se10
  0.3395000000000000    0.9966000000000002    0.4920999999999998 # Se11
  0.6605000000000000    0.0034000000000000    0.5079000000000001 # Se12
  0.9966000000000002    0.1605000000000000    0.4920999999999998 # Se13
  0.0034000000000000    0.8395000000000000    0.5079000000000001 # Se14
  0.5034000000000000    0.3395000000000000    0.4920999999999998 # Se15
  0.4966000000000000    0.6605000000000000    0.5079000000000001 # Se16
