$cell vectors
1.0
 10.8389948997977434    0.0000000000000000    0.0000000000000000
  0.0000000000000000   10.8389948997977434    0.0000000000000000
  0.0000000000000000    0.0000000000000000    5.3079975023642811
 8 8 24 24
Direct
  0.3800999999999999    0.4073000000000000    0.9679999999999994 # Na1
  0.5927000000000000    0.3800999999999999    0.4679999999999997 # Na2
  0.6199000000000001    0.5927000000000000    0.9679999999999994 # Na3
  0.4073000000000000    0.6199000000000001    0.4679999999999997 # Na4
  0.1198999999999998    0.9073000000000002    0.9679999999999994 # Na5
  0.8801000000000001    0.0927000000000003    0.9679999999999994 # Na6
  0.0927000000000003    0.1198999999999998    0.4679999999999997 # Na7
  0.9073000000000002    0.8801000000000001    0.4679999999999997 # Na8
  0.0566999999999998    0.3070999999999998    0.0000000000000000 # Zn1
  0.6929000000000001    0.0566999999999998    0.4999999999999996 # Zn2
  0.9433000000000001    0.6929000000000001    0.0000000000000000 # Zn3
  0.3070999999999998    0.9433000000000001    0.4999999999999996 # Zn4
  0.4432999999999999    0.8071000000000000    0.0000000000000000 # Zn5
  0.5567000000000000    0.1929000000000000    0.0000000000000000 # Zn6
  0.1929000000000000    0.4432999999999999    0.4999999999999996 # Zn7
  0.8071000000000000    0.5567000000000000    0.4999999999999996 # Zn8
  0.6697999999999997    0.0682000000000003    0.8739999999999993 # O1
  0.0971000000000002    0.1320000000000001    0.9359999999999995 # O2
  0.8800000000000000    0.3153999999999999    0.9329999999999997 # O3
  0.9318000000000002    0.6697999999999997    0.3739999999999999 # O4
  0.8679999999999998    0.0971000000000002    0.4360000000000000 # O5
  0.6846000000000001    0.8800000000000000    0.4330000000000001 # O6
  0.3302000000000002    0.9318000000000002    0.8739999999999993 # O7
  0.9029000000000001    0.8679999999999998    0.9359999999999995 # O8
  0.1200000000000003    0.6846000000000001    0.9329999999999997 # O9
  0.0681999999999998    0.3302000000000002    0.3739999999999999 # O10
  0.1320000000000001    0.9029000000000001    0.4360000000000000 # O11
  0.3153999999999999    0.1199999999999998    0.4330000000000001 # O12
  0.8302000000000000    0.5681999999999999    0.8739999999999993 # O13
  0.4029000000000000    0.6320000000000003    0.9359999999999995 # O14
  0.6200000000000000    0.8154000000000001    0.9329999999999997 # O15
  0.1698000000000000    0.4318000000000000    0.8739999999999993 # O16
  0.5971000000000000    0.3680000000000001    0.9359999999999995 # O17
  0.3799999999999999    0.1845999999999998    0.9329999999999997 # O18
  0.4318000000000000    0.8302000000000000    0.3739999999999999 # O19
  0.3680000000000001    0.4029000000000000    0.4360000000000000 # O20
  0.1845999999999998    0.6200000000000000    0.4330000000000001 # O21
  0.5681999999999999    0.1698000000000000    0.3739999999999999 # O22
  0.6319999999999999    0.5971000000000000    0.4360000000000000 # O23
  0.8154000000000001    0.3799999999999999    0.4330000000000001 # O24
  0.6019999999999998    0.0150000000000003    0.8409999999999992 # H1
  0.1610000000000000    0.1450000000000001    0.9389999999999994 # H2
  0.8630000000000001    0.3190000000000002    0.7469999999999993 # H3
  0.9850000000000002    0.6019999999999998    0.3409999999999997 # H4
  0.8549999999999998    0.1610000000000000    0.4389999999999998 # H5
  0.6810000000000003    0.8630000000000001    0.2469999999999999 # H6
  0.3980000000000001    0.9850000000000002    0.8409999999999992 # H7
  0.8389999999999999    0.8549999999999998    0.9389999999999994 # H8
  0.1369999999999999    0.6809999999999999    0.7469999999999993 # H9
  0.0149999999999998    0.3980000000000001    0.3409999999999997 # H10
  0.1450000000000001    0.8389999999999999    0.4389999999999998 # H11
  0.3190000000000002    0.1369999999999999    0.2469999999999999 # H12
  0.8979999999999999    0.5150000000000000    0.8410000000000002 # H13
  0.3390000000000002    0.6450000000000004    0.9389999999999994 # H14
  0.6370000000000000    0.8190000000000000    0.7469999999999993 # H15
  0.1020000000000001    0.4849999999999999    0.8409999999999992 # H16
  0.6610000000000003    0.3550000000000001    0.9389999999999994 # H17
  0.3629999999999999    0.1810000000000001    0.7469999999999993 # H18
  0.4849999999999999    0.8979999999999999    0.3409999999999997 # H19
  0.3550000000000001    0.3390000000000002    0.4389999999999998 # H20
  0.1810000000000001    0.6370000000000000    0.2469999999999999 # H21
  0.5150000000000000    0.1020000000000001    0.3409999999999997 # H22
  0.6449999999999998    0.6610000000000003    0.4389999999999998 # H23
  0.8190000000000000    0.3629999999999999    0.2469999999999999 # H24
