$cell vectors                           
   1.00000000000000     
     3.9576830212877665    0.0000000000000000    0.0000000000000000
     0.0000000000000000    3.9576830212877665    0.0000000000000000
     0.0000000000000000    0.0000000000000000    5.9764745199193001
   4   8
Direct
  0.5000000000000000  0.5000000000000000  0.5000000000000000
  0.0000000000000000  0.0000000000000000  0.0000000000000000
  0.5000000000000000  0.0000000000000000  0.7500000000000000
  0.0000000000000000  0.5000000000000000  0.2500000000000000
  0.2500000000000000  0.6652608401630655  0.3750000000000000
  0.7500000000000000  0.1652608401630656  0.8750000000000000
  0.6652608401630655  0.7500000000000000  0.6250000000000000
  0.1652608401630656  0.2500000000000000  0.1250000000000000
  0.7500000000000000  0.3347391598369345  0.3750000000000000
  0.2500000000000000  0.8347391598369343  0.8750000000000000
  0.3347391598369345  0.2500000000000000  0.6250000000000000
  0.8347391598369343  0.7500000000000000  0.1250000000000000
 
  0.00000000E+00  0.00000000E+00  0.00000000E+00
  0.00000000E+00  0.00000000E+00  0.00000000E+00
  0.00000000E+00  0.00000000E+00  0.00000000E+00
  0.00000000E+00  0.00000000E+00  0.00000000E+00
  0.00000000E+00  0.00000000E+00  0.00000000E+00
  0.00000000E+00  0.00000000E+00  0.00000000E+00
  0.00000000E+00  0.00000000E+00  0.00000000E+00
  0.00000000E+00  0.00000000E+00  0.00000000E+00
  0.00000000E+00  0.00000000E+00  0.00000000E+00
  0.00000000E+00  0.00000000E+00  0.00000000E+00
  0.00000000E+00  0.00000000E+00  0.00000000E+00
  0.00000000E+00  0.00000000E+00  0.00000000E+00
