$cell vectors
1.0
  5.0049976449384346    0.0000000000000000    0.0000000000000000
  0.0000000000000000    5.0049976449384346    0.0000000000000000
  0.0000000000000000    0.0000000000000000    4.8099977366940800
 2 2
Direct
  0.0000000000000000    0.0000000000000000    0.0000000000000000 # In1
  0.5000000000000007    0.5000000000000007    0.0000000000000000 # In2
  0.0000000000000000    0.5000000000000007    0.3887999999999995 # Bi1
  0.5000000000000007    0.0000000000000000    0.6112000000000006 # Bi2
