$cell vectors
1.0
  9.3829955849065581    0.0000000000000000    0.0000000000000000
  0.0000000000000000    9.3829955849065581    0.0000000000000000
  0.0000000000000053    0.0000000000000053   54.5999743084192986
 48 104 24 8
Direct
  0.5906999999999999    0.3794000000000001    0.8396000000000000 # Ta1
  0.5787999999999999    0.3628000000000000    0.7850000000000003 # Ta2
  0.1872000000000001    0.1148999999999998    0.3134999999999999 # Ta3
  0.0906999999999999    0.8794000000000002    0.3396000000000000 # Ta4
  0.0787999999999999    0.8628000000000007    0.2850000000000001 # Ta5
  0.6872000000000000    0.6149000000000006    0.8135000000000000 # Ta6
  0.6206000000000000    0.0907000000000001    0.0896000000000000 # Ta7
  0.6372000000000002    0.0788000000000000    0.0350000000000002 # Ta8
  0.8851000000000003    0.6872000000000001    0.5634999999999999 # Ta9
  0.1205999999999999    0.5907000000000000    0.5895999999999998 # Ta10
  0.1372000000000000    0.5788000000000005    0.5350000000000000 # Ta11
  0.3851000000000002    0.1872000000000003    0.0634999999999999 # Ta12
  0.4093000000000002    0.6206000000000006    0.8396000000000000 # Ta13
  0.4211999999999998    0.6372000000000002    0.7850000000000003 # Ta14
  0.8128000000000001    0.8851000000000004    0.3134999999999999 # Ta15
  0.9093000000000002    0.1206000000000001    0.3395999999999995 # Ta16
  0.9212000000000006    0.1372000000000002    0.2850000000000001 # Ta17
  0.3128000000000001    0.3851000000000004    0.8135000000000000 # Ta18
  0.3794000000000005    0.9093000000000004    0.0896000000000000 # Ta19
  0.3627999999999999    0.9212000000000007    0.0350000000000002 # Ta20
  0.1148999999999997    0.3128000000000002    0.5634999999999999 # Ta21
  0.8794000000000001    0.4093000000000004    0.5895999999999998 # Ta22
  0.8628000000000005    0.4212000000000000    0.5350000000000000 # Ta23
  0.6149000000000003    0.8128000000000003    0.0634999999999999 # Ta24
  0.5907000000000001    0.1206000000000000    0.4103999999999997 # Ta25
  0.5788000000000001    0.1372000000000001    0.4649999999999997 # Ta26
  0.1871999999999998    0.3851000000000003    0.9365000000000000 # Ta27
  0.0906999999999996    0.6206000000000005    0.9104000000000001 # Ta28
  0.0788000000000001    0.6372000000000001    0.9650000000000000 # Ta29
  0.6872000000000003    0.8851000000000004    0.4364999999999998 # Ta30
  0.4093000000000000    0.8794000000000002    0.4103999999999997 # Ta31
  0.4212000000000000    0.8628000000000006    0.4649999999999997 # Ta32
  0.8128000000000002    0.6149000000000004    0.9365000000000000 # Ta33
  0.9092999999999999    0.3794000000000001    0.9104000000000001 # Ta34
  0.9212000000000001    0.3627999999999999    0.9650000000000000 # Ta35
  0.3127999999999997    0.1149000000000003    0.4364999999999998 # Ta36
  0.3793999999999999    0.5907000000000002    0.1604000000000002 # Ta37
  0.3628000000000003    0.5788000000000002    0.2149999999999999 # Ta38
  0.1148999999999996    0.1871999999999999    0.6864999999999999 # Ta39
  0.8794000000000001    0.0907000000000003    0.6604000000000000 # Ta40
  0.8628000000000003    0.0788000000000002    0.7150000000000001 # Ta41
  0.6149000000000002    0.6872000000000004    0.1865000000000001 # Ta42
  0.6206000000000005    0.4093000000000001    0.1604000000000002 # Ta43
  0.6372000000000001    0.4212000000000001    0.2149999999999999 # Ta44
  0.8851000000000003    0.8128000000000004    0.6864999999999999 # Ta45
  0.1205999999999999    0.9093000000000001    0.6604000000000000 # Ta46
  0.1371999999999999    0.9212000000000002    0.7150000000000001 # Ta47
  0.3851000000000002    0.3127999999999999    0.1865000000000001 # Ta48
  0.3828000000000000    0.2010000000000000    0.8481000000000001 # Br1
  0.1763000000000000    0.5210000000000000    0.7793000000000000 # Br2
  0.3625000000000001    0.1899000000000000    0.7817000000000001 # Br3
  0.3045999999999999    0.8242000000000004    0.8129000000000001 # Br4
  0.4999999999999999    0.5000000000000006    0.7467000000000001 # Br5
  0.0552000000000002    0.2537000000000000    0.8209000000000001 # Br6
  0.2500000000000002    0.7620000000000005    0.8750000000000001 # Br7
  0.1715999999999999    0.8284000000000000    0.0000000000000000 # Br8
  0.8828000000000006    0.7010000000000004    0.3481000000000001 # Br9
  0.6763000000000000    0.0210000000000000    0.2793000000000002 # Br10
  0.8625000000000007    0.6899000000000002    0.2816999999999998 # Br11
  0.8046000000000004    0.3242000000000004    0.3129000000000000 # Br12
 -0.0000000000000001   -0.0000000000000001    0.2467000000000002 # Br13
  0.5552000000000001    0.7536999999999999    0.3209000000000001 # Br14
  0.7500000000000002    0.2620000000000003    0.3749999999999996 # Br15
  0.6716000000000000    0.3284000000000001    0.4999999999999998 # Br16
  0.7990000000000000    0.8828000000000003    0.0981000000000001 # Br17
  0.4790000000000001    0.6763000000000001    0.0293000000000001 # Br18
  0.8101000000000000    0.8625000000000003    0.0316999999999999 # Br19
  0.1758000000000003    0.8046000000000001    0.0629000000000000 # Br20
  0.4999999999999998    0.0000000000000000    0.9967000000000000 # Br21
  0.7463000000000002    0.5552000000000004    0.0709000000000000 # Br22
  0.2380000000000002    0.7500000000000003    0.1250000000000000 # Br23
  0.1716000000000003    0.6716000000000002    0.2500000000000000 # Br24
  0.2990000000000001    0.3828000000000001    0.5981000000000000 # Br25
  0.9790000000000001    0.1763000000000002    0.5292999999999999 # Br26
  0.3101000000000002    0.3625000000000003    0.5316999999999998 # Br27
  0.6758000000000004    0.3046000000000000    0.5628999999999998 # Br28
 -0.0000000000000003    0.5000000000000000    0.4967000000000000 # Br29
  0.2463000000000000    0.0552000000000003    0.5709000000000000 # Br30
  0.7380000000000002    0.2500000000000004    0.6250000000000000 # Br31
  0.6715999999999999    0.1716000000000000    0.7500000000000001 # Br32
  0.6172000000000003    0.7990000000000002    0.8481000000000001 # Br33
  0.8237000000000004    0.4790000000000003    0.7793000000000000 # Br34
  0.6375000000000001    0.8101000000000003    0.7817000000000001 # Br35
  0.6954000000000004    0.1757999999999999    0.8129000000000001 # Br36
  0.9448000000000001    0.7463000000000002    0.8209000000000001 # Br37
  0.7500000000000000    0.2380000000000003    0.8750000000000001 # Br38
  0.8284000000000000    0.1715999999999999    0.0000000000000000 # Br39
  0.1172000000000002    0.2990000000000002    0.3481000000000001 # Br40
  0.3237000000000003    0.9790000000000003    0.2793000000000002 # Br41
  0.1375000000000001    0.3101000000000003    0.2816999999999998 # Br42
  0.1953999999999998    0.6758000000000005    0.3129000000000000 # Br43
  0.4448000000000000    0.2463000000000001    0.3209000000000001 # Br44
  0.2499999999999999    0.7380000000000003    0.3749999999999996 # Br45
  0.3284000000000001    0.6716000000000000    0.4999999999999998 # Br46
  0.2009999999999998    0.1172000000000004    0.0981000000000001 # Br47
  0.5209999999999999    0.3236999999999999    0.0293000000000001 # Br48
  0.1898999999999999    0.1375000000000003    0.0316999999999999 # Br49
  0.8242000000000003    0.1954000000000000    0.0629000000000000 # Br50
  0.2536999999999999    0.4448000000000001    0.0709000000000000 # Br51
  0.7620000000000002    0.2500000000000001    0.1250000000000000 # Br52
  0.8284000000000006    0.3284000000000002    0.2500000000000000 # Br53
  0.7010000000000003    0.6172000000000004    0.5981000000000000 # Br54
  0.0209999999999999    0.8237000000000005    0.5292999999999999 # Br55
  0.6899000000000000    0.6375000000000002    0.5316999999999998 # Br56
  0.3242000000000002    0.6954000000000005    0.5628999999999998 # Br57
  0.7537000000000004    0.9448000000000009    0.5709000000000000 # Br58
  0.2620000000000002    0.7500000000000001    0.6250000000000000 # Br59
  0.3284000000000000    0.8284000000000002    0.7500000000000001 # Br60
  0.3828000000000003    0.2990000000000002    0.4018999999999999 # Br61
  0.1763000000000002    0.9790000000000008    0.4706999999999998 # Br62
  0.3625000000000003    0.3101000000000002    0.4682999999999999 # Br63
  0.3046000000000001    0.6758000000000005    0.4370999999999999 # Br64
  0.5000000000000000    0.0000000000000003    0.5032999999999997 # Br65
  0.0551999999999998    0.2463000000000001    0.4291000000000000 # Br66
  0.8828000000000003    0.7990000000000000    0.9018999999999999 # Br67
  0.6763000000000002    0.4790000000000001    0.9707000000000001 # Br68
  0.8625000000000003    0.8101000000000002    0.9683000000000002 # Br69
  0.8046000000000001    0.1758000000000004    0.9371000000000002 # Br70
  0.0000000000000000    0.5000000000000003    0.0032999999999999 # Br71
  0.5551999999999998    0.7463000000000001    0.9291000000000001 # Br72
  0.6172000000000000    0.7010000000000004    0.4018999999999999 # Br73
  0.8237000000000007    0.0209999999999999    0.4706999999999998 # Br74
  0.6375000000000003    0.6899000000000005    0.4682999999999999 # Br75
  0.6954000000000000    0.3242000000000003    0.4370999999999999 # Br76
  0.9448000000000003    0.7537000000000005    0.4291000000000000 # Br77
  0.1171999999999999    0.2010000000000000    0.9018999999999999 # Br78
  0.3236999999999999    0.5210000000000005    0.9707000000000001 # Br79
  0.1374999999999998    0.1898999999999999    0.9683000000000002 # Br80
  0.1954000000000000    0.8242000000000003    0.9371000000000002 # Br81
  0.4447999999999997    0.2537000000000000    0.9291000000000001 # Br82
  0.2009999999999998    0.3828000000000004    0.1518999999999999 # Br83
  0.5210000000000004    0.1763000000000003    0.2206999999999999 # Br84
  0.1899000000000003    0.3624999999999999    0.2183000000000002 # Br85
  0.8242000000000002    0.3046000000000002    0.1871000000000001 # Br86
  0.5000000000000002    0.5000000000000002    0.2532999999999999 # Br87
  0.2536999999999998    0.0552000000000000    0.1791000000000000 # Br88
  0.7010000000000003    0.8828000000000005    0.6519000000000000 # Br89
  0.0209999999999998    0.6763000000000003    0.7206999999999999 # Br90
  0.6899000000000003    0.8625000000000004    0.7182999999999999 # Br91
  0.3242000000000002    0.8046000000000003    0.6870999999999999 # Br92
 -0.0000000000000004    0.0000000000000001    0.7533000000000001 # Br93
  0.7537000000000004    0.5552000000000006    0.6790999999999998 # Br94
  0.7989999999999999    0.6172000000000001    0.1518999999999999 # Br95
  0.4790000000000006    0.8237000000000008    0.2206999999999999 # Br96
  0.8100999999999999    0.6375000000000000    0.2183000000000002 # Br97
  0.1758000000000002    0.6954000000000001    0.1871000000000001 # Br98
  0.7463000000000005    0.9448000000000004    0.1791000000000000 # Br99
  0.2990000000000000    0.1172000000000001    0.6519000000000000 # Br100
  0.9790000000000000    0.3237000000000000    0.7206999999999999 # Br101
  0.3101000000000000    0.1374999999999999    0.7182999999999999 # Br102
  0.6758000000000004    0.1954000000000002    0.6870999999999999 # Br103
  0.2462999999999999    0.4448000000000004    0.6790999999999998 # Br104
  0.4999999999999998    0.5000000000000006    0.8671000000000000 # O1
  0.2299999999999997    0.5130000000000005    0.8381999999999999 # O2
 -0.0000000000000002   -0.0000000000000002    0.3670999999999995 # O3
  0.7300000000000002    0.0129999999999999    0.3382000000000001 # O4
  0.5000000000000002   -0.0000000000000001    0.1171000000000000 # O5
  0.4870000000000001    0.7300000000000004    0.0882000000000001 # O6
 -0.0000000000000003    0.5000000000000000    0.6170999999999999 # O7
  0.9870000000000000    0.2299999999999998    0.5881999999999998 # O8
  0.7700000000000000    0.4870000000000003    0.8381999999999999 # O9
  0.2700000000000000    0.9870000000000001    0.3382000000000001 # O10
  0.5130000000000005    0.2700000000000001    0.0882000000000001 # O11
  0.0129999999999998    0.7700000000000007    0.5881999999999998 # O12
  0.5000000000000001   -0.0000000000000002    0.3828999999999998 # O13
  0.2300000000000000    0.9870000000000001    0.4117999999999999 # O14
  0.0000000000000001    0.5000000000000006    0.8829000000000002 # O15
  0.7299999999999999    0.4870000000000003    0.9117999999999999 # O16
  0.7700000000000002    0.0129999999999999    0.4117999999999999 # O17
  0.2700000000000002    0.5130000000000003    0.9117999999999999 # O18
  0.5000000000000002    0.5000000000000002    0.1329000000000001 # O19
  0.5130000000000003    0.2300000000000001    0.1618000000000000 # O20
 -0.0000000000000004    0.0000000000000002    0.6329000000000000 # O21
  0.0129999999999997    0.7300000000000001    0.6618000000000001 # O22
  0.4870000000000000    0.7700000000000004    0.1618000000000000 # O23
  0.9870000000000000    0.2700000000000003    0.6618000000000001 # O24
  0.4999999999999998    0.5000000000000004    0.9041999999999999 # Lu1
  0.9999999999999998   -0.0000000000000002    0.4041999999999997 # Lu2
  0.5000000000000002   -0.0000000000000001    0.1541999999999999 # Lu3
 -0.0000000000000004    0.4999999999999999    0.6542000000000001 # Lu4
  0.5000000000000001   -0.0000000000000002    0.3457999999999998 # Lu5
  0.0000000000000001    0.5000000000000006    0.8458000000000002 # Lu6
  0.5000000000000003    0.5000000000000003    0.0958000000000001 # Lu7
 -0.0000000000000003    0.0000000000000002    0.5958000000000000 # Lu8
