$cell vectors
1.0
  5.4149974520163102    0.0000000000000000    0.0000000000000000
  0.0000000000000000    5.4149974520163102    0.0000000000000000
  0.0000000000000000    0.0000000000000000   10.1969952018855583
 8 2 2
Direct
  0.7610000000000003    0.7289999999999999    0.6290000000000001 # Cl1
  0.7289999999999999    0.2389999999999996    0.3709999999999999 # Cl2
  0.2389999999999996    0.2710000000000000    0.6290000000000001 # Cl3
  0.2710000000000000    0.7610000000000003    0.3709999999999999 # Cl4
  0.7610000000000003    0.2710000000000000    0.8709999999999999 # Cl5
  0.2389999999999996    0.7289999999999999    0.8709999999999999 # Cl6
  0.2710000000000000    0.2389999999999996    0.1290000000000002 # Cl7
  0.7289999999999999    0.7610000000000003    0.1290000000000002 # Cl8
  0.0000000000000000    0.5000000000000004    0.7500000000000000 # Ga1
  0.5000000000000004    0.0000000000000000    0.2500000000000000 # Ga2
  0.0000000000000000    0.0000000000000000    0.5000000000000000 # Cu1
  1.0000000000000000    0.0000000000000000    0.0000000000000000 # Cu2
