$cell vectors
1.0
  8.8699958262944900    0.0000000000000000    0.0000000000000000
  0.0000000000000000    8.8699958262944900    0.0000000000000000
  0.0000000000000000    0.0000000000000000    5.2149975461246667
 4 6 16
Direct
  0.3010000000000000    0.8010000000000002    0.9594999999999991 # K1
  0.1989999999999997    0.3010000000000000    0.9594999999999991 # K2
  0.6990000000000000    0.1990000000000003    0.9594999999999991 # K3
  0.8010000000000002    0.6990000000000000    0.9594999999999991 # K4
  0.0000000000000000    0.0000000000000000    0.4950999999999996 # V1
  0.1340000000000002    0.6339999999999999    0.4899999999999995 # V2
  0.3660000000000001    0.1340000000000002    0.4899999999999995 # V3
  0.8659999999999997    0.3660000000000001    0.4899999999999995 # V4
  0.6339999999999999    0.8659999999999997    0.4899999999999995 # V5
  0.5000000000000002    0.5000000000000002    0.4950999999999996 # V6
  0.0865999999999999    0.8081000000000000    0.5996000000000001 # O1
  0.1299000000000002    0.6298999999999998    0.1780000000000002 # O2
  0.0000000000000000    0.4999999999999997    0.6103999999999999 # O3
  0.0000000000000000    0.0000000000000000    0.1918000000000002 # O4
  0.1919000000000000    0.0865999999999999    0.5996000000000001 # O5
  0.3701000000000002    0.1299000000000002    0.1780000000000002 # O6
  0.5000000000000002    0.0000000000000000    0.6103999999999999 # O7
  0.9134000000000002    0.1919000000000000    0.5996000000000001 # O8
  0.8700999999999999    0.3701000000000002    0.1780000000000002 # O9
  0.8081000000000000    0.9134000000000002    0.5996000000000001 # O10
  0.6298999999999998    0.8700999999999999    0.1780000000000002 # O11
  0.4133999999999998    0.3081000000000003    0.5996000000000001 # O12
  0.5000000000000002    0.5000000000000002    0.1918000000000002 # O13
  0.5866000000000002    0.6918999999999998    0.5996000000000001 # O14
  0.6918999999999998    0.4134000000000004    0.5996000000000001 # O15
  0.3081000000000003    0.5866000000000002    0.5996000000000001 # O16
