$cell vectors
1.0
  7.9539962573107550    0.0000000000000000    0.0000000000000000
  0.0000000000000000    7.9539962573107550    0.0000000000000000
  0.0000000000000000    0.0000000000000000    4.6779977988055927
 4 8
Direct
  0.0000000000000000    0.0000000000000000    0.0000000000000000 # Cd1
  0.5000000000000000    0.5000000000000000    0.5000000000000000 # Cd2
  0.0000000000000000    0.5000000000000000    0.2500000000000000 # Cd3
  0.5000000000000000    0.0000000000000000    0.7500000000000000 # Cd4
  0.4399999999999997    0.2500000000000000    0.1250000000000006 # As1
  0.9399999999999997    0.7500000000000001    0.6250000000000007 # As2
  0.7500000000000001    0.9399999999999997    0.3750000000000006 # As3
  0.2500000000000000    0.4399999999999997    0.8750000000000008 # As4
  0.5599999999999996    0.7500000000000001    0.1250000000000006 # As5
  0.0600000000000003    0.2500000000000000    0.6250000000000007 # As6
  0.2500000000000000    0.0600000000000003    0.3750000000000006 # As7
  0.7500000000000001    0.5600000000000004    0.8750000000000008 # As8
