$cell vectors
1.0
  4.5844978428012535    0.0000000000000000    0.0000000000000000
  0.0000000000000000    4.5844978428012535    0.0000000000000000
  0.0000000000000000    0.0000000000000000    2.9532986103489849
 2 4
Direct
  0.0000000000000000    0.0000000000000000    0.0000000000000000 # Ti1
  0.5000000000000000    0.5000000000000000    0.5000000000000010 # Ti2
  0.3049000000000000    0.3049000000000000    0.0000000000000000 # O1
  0.6951000000000001    0.6951000000000001    0.0000000000000000 # O2
  0.1951000000000000    0.8049000000000001    0.5000000000000010 # O3
  0.8049000000000001    0.1951000000000000    0.5000000000000010 # O4
