$cell vectors
1.0
  7.7619963476547715    0.0000000000000000    0.0000000000000000
  0.0000000000000000    7.7619963476547715    0.0000000000000000
  0.0000000000000000    0.0000000000000000   11.7459944730163599
 4 10 26
Direct
  0.0000000000000000    0.5000000000000000    0.2500000000000000 # Cs1
  0.5000000000000000    0.0000000000000000    0.7499999999999996 # Cs2
  0.5000000000000000    0.0000000000000000    0.2500000000000000 # Cs3
  0.0000000000000000    0.5000000000000000    0.7499999999999996 # Cs4
  0.2239000000000003    0.2239000000000003    0.0029000000000000 # V1
  0.0000000000000000    0.0000000000000000    0.6493000000000000 # V2
  0.7239000000000003    0.7239000000000003    0.5029000000000001 # V3
  0.5000000000000000    0.5000000000000000    0.1492999999999999 # V4
  0.7761000000000003    0.2239000000000003    0.0029000000000000 # V5
  0.2761000000000003    0.7239000000000003    0.5029000000000001 # V6
  0.7761000000000003    0.7761000000000003    0.0029000000000000 # V7
  0.2761000000000003    0.2761000000000003    0.5029000000000001 # V8
  0.2239000000000003    0.7761000000000003    0.0029000000000000 # V9
  0.7239000000000003    0.2761000000000003    0.5029000000000001 # V10
  0.3163999999999997    0.3163999999999997    0.1163000000000002 # O1
  0.3058000000000002    0.3058000000000002    0.8901999999999997 # O2
  0.2713999999999999    0.0000000000000000    0.9899999999999997 # O3
  0.0000000000000000    0.0000000000000000    0.7844000000000000 # O4
  0.8164000000000006    0.8164000000000006    0.6162999999999997 # O5
  0.8058000000000001    0.8058000000000001    0.3902000000000003 # O6
  0.7714000000000000    0.5000000000000000    0.4900000000000001 # O7
  0.5000000000000000    0.5000000000000000    0.2843999999999999 # O8
  0.6836000000000003    0.3163999999999997    0.1163000000000002 # O9
  0.6942000000000006    0.3058000000000002    0.8901999999999997 # O10
  0.0000000000000000    0.2713999999999999    0.9899999999999997 # O11
  0.1836000000000003    0.8164000000000006    0.6162999999999997 # O12
  0.1941999999999998    0.8058000000000001    0.3902000000000003 # O13
  0.5000000000000000    0.7714000000000000    0.4900000000000001 # O14
  0.6836000000000003    0.6836000000000003    0.1163000000000002 # O15
  0.6942000000000006    0.6942000000000006    0.8901999999999997 # O16
  0.7286000000000001    0.0000000000000000    0.9899999999999997 # O17
  0.1836000000000003    0.1836000000000003    0.6162999999999997 # O18
  0.1941999999999998    0.1941999999999998    0.3902000000000003 # O19
  0.2286000000000001    0.5000000000000000    0.4900000000000001 # O20
  0.3164000000000005    0.6836000000000003    0.1163000000000002 # O21
  0.3058000000000002    0.6942000000000006    0.8901999999999997 # O22
  0.0000000000000000    0.7286000000000001    0.9899999999999997 # O23
  0.8164000000000006    0.1836000000000003    0.6162999999999997 # O24
  0.8058000000000001    0.1941999999999998    0.3902000000000003 # O25
  0.5000000000000000    0.2286000000000001    0.4900000000000001 # O26
