$cell vectors
1.0
  4.9759976585841450    0.0000000000000000    0.0000000000000000
  0.0000000000000000    4.9759976585841450    0.0000000000000000
  0.0000000000000000    0.0000000000000000    6.7459968257252134
 2 2 8
Direct
  0.0000000000000000    0.0000000000000000    0.5000000000000000 # Ag1
  0.5000000000000000    0.5000000000000000    0.0000000000000000 # Ag2
  0.0000000000000000    0.0000000000000000    0.0000000000000000 # Cl1
  0.5000000000000000    0.5000000000000000    0.5000000000000000 # Cl2
  0.1647000000000002    0.1647000000000002    0.1338999999999998 # O1
  0.6647000000000003    0.6647000000000003    0.6338999999999998 # O2
  0.1647000000000002    0.8353000000000000    0.8660999999999995 # O3
  0.6647000000000003    0.3352999999999999    0.3661000000000003 # O4
  0.8353000000000000    0.8353000000000000    0.1338999999999998 # O5
  0.3352999999999999    0.3352999999999999    0.6338999999999998 # O6
  0.8353000000000000    0.1647000000000002    0.8660999999999995 # O7
  0.3352999999999999    0.6647000000000003    0.3661000000000003 # O8
