$cell vectors
1.0
  7.0081967023491600    0.0000000000000000    0.0000000000000000
  0.0000000000000000    7.0081967023491600    0.0000000000000000
  0.0000000000000000    0.0000000000000000    8.6517959289667061
 12 4 16
Direct
  0.2574999999999997    0.0000000000000000    0.2499999999999998 # Ag1
  0.0000000000000000    0.2084999999999998    0.0000000000000000 # Ag2
  0.5000000000000003    0.7921999999999999    0.0000000000000000 # Ag3
  0.0000000000000000    0.2574999999999997    0.4999999999999996 # Ag4
  0.7915000000000001    0.0000000000000000    0.2499999999999998 # Ag5
  0.2077999999999999    0.5000000000000003    0.2499999999999998 # Ag6
  0.7425000000000000    0.0000000000000000    0.7500000000000001 # Ag7
  0.0000000000000000    0.7915000000000001    0.4999999999999996 # Ag8
  0.5000000000000003    0.2077999999999999    0.4999999999999996 # Ag9
  0.0000000000000000    0.7425000000000000    0.0000000000000000 # Ag10
  0.2084999999999998    0.0000000000000000    0.7500000000000001 # Ag11
  0.7921999999999999    0.5000000000000003    0.7500000000000001 # Ag12
  0.5000000000000003    0.2803999999999999    0.0000000000000000 # Ru1
  0.7195999999999999    0.5000000000000003    0.2499999999999998 # Ru2
  0.5000000000000003    0.7195999999999999    0.4999999999999996 # Ru3
  0.2803999999999999    0.5000000000000003    0.7500000000000001 # Ru4
  0.6940999999999999    0.4871999999999998    0.0247999999999999 # O1
  0.3062999999999997    0.0904999999999998    0.0159000000000003 # O2
  0.5128000000000001    0.6940999999999999    0.2747999999999998 # O3
  0.9095000000000001    0.3062999999999997    0.2659000000000001 # O4
  0.3058999999999999    0.5128000000000001    0.5248000000000003 # O5
  0.6937000000000002    0.9095000000000001    0.5159000000000000 # O6
  0.4871999999999998    0.3058999999999999    0.7747999999999999 # O7
  0.0904999999999998    0.6937000000000002    0.7658999999999997 # O8
  0.6940999999999999    0.5128000000000001    0.4751999999999997 # O9
  0.3063000000000005    0.9095000000000001    0.4841000000000000 # O10
  0.3058999999999999    0.4872000000000006    0.9752000000000000 # O11
  0.6937000000000002    0.0904999999999998    0.9840999999999995 # O12
  0.4871999999999998    0.6940999999999999    0.7252000000000002 # O13
  0.0904999999999998    0.3063000000000005    0.7340999999999999 # O14
  0.5128000000000001    0.3058999999999999    0.2251999999999999 # O15
  0.9095000000000001    0.6937000000000002    0.2341000000000002 # O16
