$cell vectors
1.0
  7.6208964140482189    0.0000000000000000    0.0000000000000000
  0.0000000000000000    7.6208964140482189    0.0000000000000000
  0.0000000000000000    0.0000000000000000    6.3199970261760088
 4 4 4 10
Direct
  0.6480999999999999    0.8290999999999996    0.3564999999999999 # Te1
  0.8290999999999996    0.3519000000000001    0.6434999999999993 # Te2
  0.3519000000000001    0.1709000000000003    0.3564999999999999 # Te3
  0.1709000000000003    0.6480999999999999    0.6434999999999993 # Te4
  0.7308999999999998    0.4530999999999998    0.1579000000000002 # Cu1
  0.4530999999999998    0.2691000000000002    0.8421000000000000 # Cu2
  0.2691000000000002    0.5468999999999995    0.1579000000000002 # Cu3
  0.5468999999999995    0.7308999999999998    0.8421000000000000 # Cu4
  0.9077999999999997    0.2221999999999999    0.1878999999999998 # Cl1
  0.2221999999999999    0.0922000000000003    0.8120999999999994 # Cl2
  0.0921999999999996    0.7777999999999999    0.1878999999999998 # Cl3
  0.7777999999999999    0.9077999999999997    0.8120999999999994 # Cl4
  0.5857999999999995    0.6674999999999994    0.1408000000000003 # O1
  0.4718000000000002    0.7712999999999999    0.5516000000000001 # O2
  0.5000000000000000    0.0000000000000000    0.2156999999999996 # O3
  0.6674999999999994    0.4142000000000003    0.8592000000000001 # O4
  0.7712999999999999    0.5281999999999998    0.4484000000000001 # O5
  0.0000000000000000    0.5000000000000000    0.7842999999999997 # O6
  0.4141999999999996    0.3324999999999998    0.1408000000000003 # O7
  0.5281999999999998    0.2287000000000002    0.5516000000000001 # O8
  0.3324999999999998    0.5857999999999995    0.8592000000000001 # O9
  0.2287000000000002    0.4718000000000002    0.4484000000000001 # O10
