$cell vectors
1.0
  8.0899961933170719    0.0000000000000000    0.0000000000000000
  0.0000000000000000    8.0899961933170719    0.0000000000000000
  0.0000000000000000    0.0000000000000000    5.4499974355473464
 8 8
Direct
  0.1050000000000002    0.0000000000000000    0.3850000000000005 # B1
  0.3950000000000001    0.4999999999999997    0.1150000000000000 # B2
  0.4999999999999997    0.6049999999999999   -0.1150000000000000 # B3
 -0.1050000000000002    0.0000000000000000    0.3850000000000005 # B4
  0.4999999999999997    0.3950000000000001   -0.1150000000000000 # B5
  0.0000000000000000   -0.1050000000000002    0.6150000000000005 # B6
  0.0000000000000000    0.1050000000000002    0.6150000000000005 # B7
  0.6049999999999999    0.4999999999999997    0.1150000000000000 # B8
  0.2750000000000001    0.0000000000000000    0.2040000000000003 # Cl1
  0.2249999999999997    0.4999999999999997    0.2960000000000002 # Cl2
  0.4999999999999997    0.7750000000000004   -0.2960000000000002 # Cl3
 -0.2750000000000001    0.0000000000000000    0.2040000000000003 # Cl4
  0.4999999999999997    0.2249999999999997   -0.2960000000000002 # Cl5
  0.0000000000000000   -0.2750000000000001    0.7960000000000007 # Cl6
  0.0000000000000000    0.2750000000000001    0.7960000000000007 # Cl7
  0.7750000000000004    0.4999999999999997    0.2960000000000002 # Cl8
