$cell vectors
1.0
  8.5899959580461864    0.0000000000000000    0.0000000000000000
  0.0000000000000000    8.5899959580461864    0.0000000000000000
  0.0000000000000000    0.0000000000000000    5.9129972176865051
 4 8 16
Direct
  0.0000000000000000    0.5000000000000003    0.2499999999999998 # Fe1
  0.0000000000000000    0.5000000000000003    0.7500000000000003 # Fe2
  0.5000000000000003    1.0000000000000000    0.7500000000000003 # Fe3
  0.5000000000000003    1.0000000000000000    0.2499999999999998 # Fe4
  0.1763000000000002    0.1657999999999999    0.0000000000000000 # Sb1
  0.8236999999999998    0.8341999999999999    0.0000000000000000 # Sb2
  0.8341999999999999    0.1763000000000002    0.5000000000000006 # Sb3
  0.1657999999999999    0.8236999999999998    0.5000000000000006 # Sb4
  0.6762999999999998    0.3342000000000003    0.0000000000000000 # Sb5
  0.3237000000000001    0.6658000000000002    0.0000000000000000 # Sb6
  0.6658000000000002    0.6762999999999998    0.5000000000000006 # Sb7
  0.3341999999999998    0.3237000000000001    0.5000000000000006 # Sb8
  0.6793999999999999    0.1794000000000003    0.2499999999999998 # O1
  0.1017999999999998    0.6411999999999999    0.0000000000000000 # O2
  0.3205999999999999    0.8206000000000003    0.7500000000000003 # O3
  0.8982000000000001    0.3588000000000000    0.0000000000000000 # O4
  0.8206000000000003    0.6793999999999999    0.7500000000000003 # O5
  0.3588000000000000    0.1017999999999998    0.5000000000000006 # O6
  0.1794000000000003    0.3205999999999999    0.2499999999999998 # O7
  0.6411999999999999    0.8982000000000001    0.5000000000000006 # O8
  0.3205999999999999    0.8206000000000003    0.2499999999999998 # O9
  0.6793999999999999    0.1794000000000003    0.7500000000000003 # O10
  0.1794000000000003    0.3205999999999999    0.7500000000000003 # O11
  0.8206000000000003    0.6793999999999999    0.2499999999999998 # O12
  0.6018000000000001    0.8588000000000002    0.0000000000000000 # O13
  0.3981999999999998    0.1411999999999997    0.0000000000000000 # O14
  0.1412000000000003    0.6018000000000001    0.5000000000000006 # O15
  0.8588000000000002    0.3981999999999998    0.5000000000000006 # O16
