$cell vectors
1.0
  3.5518983286826846    0.0000000000000000    0.0000000000000000
  0.0000000000000000    3.5518983286826846    0.0000000000000000
  0.0000000000000000    0.0000000000000053   25.6453879327680632
 6 8 8 6
Direct
  0.0000000000000000   -0.0000000000000002    0.1040000000000000 # Y1
  0.0000000000000000   -0.0000000000000006    0.4031999999999999 # Y2
  0.0000000000000000   -0.0000000000000012    0.8039999999999999 # Y3
  0.5000000000000000    0.4999999999999991    0.6040000000000000 # Y4
  0.5000000000000000    0.4999999999999987    0.9032000000000000 # Y5
  0.5000000000000000    0.4999999999999996    0.3040000000000001 # Y6
  0.0000000000000000    0.5000000000000000    0.0040000000000000 # Ni1
  0.0000000000000000    0.4999999999999997    0.2080000000000000 # Ni2
  0.5000000000000000   -0.0000000000000008    0.5040000000000000 # Ni3
  0.5000000000000000   -0.0000000000000011    0.7079999999999999 # Ni4
  0.5000000000000000    0.0000000000000000    0.0040000000000000 # Ni5
  0.5000000000000000   -0.0000000000000003    0.2080000000000000 # Ni6
  0.0000000000000000    0.4999999999999992    0.5040000000000000 # Ni7
  0.0000000000000000    0.4999999999999989    0.7079999999999999 # Ni8
  0.0000000000000000   -0.0000000000000004    0.2550000000000000 # B1
  0.0000000000000000   -0.0000000000000008    0.5469999999999999 # B2
  0.0000000000000000   -0.0000000000000010    0.6610000000000000 # B3
  0.0000000000000000    0.0000000000000001    0.9530000000000000 # B4
  0.5000000000000000    0.4999999999999989    0.7550000000000000 # B5
  0.5000000000000000    0.4999999999999999    0.0470000000000002 # B6
  0.5000000000000000    0.4999999999999998    0.1610000000000000 # B7
  0.5000000000000000    0.4999999999999993    0.4529999999999998 # B8
  0.0000000000000000   -0.0000000000000005    0.3049999999999999 # C1
  0.0000000000000000   -0.0000000000000009    0.6040000000000000 # C2
  0.0000000000000000   -0.0000000000000013    0.9019999999999999 # C3
  0.5000000000000000    0.4999999999999988    0.8049999999999997 # C4
  0.5000000000000000    0.4999999999999998    0.1040000000000000 # C5
  0.5000000000000000    0.4999999999999994    0.4020000000000002 # C6
