                                        
   1.00000000000000     
    10.1690239578638479   -0.0002129353726352   -0.0028901949007707
    -0.0001941541417016    9.2004450467216579    0.0003822231650628
    -3.4905010434135195    0.0003924159888142    7.6826686036015523
   H    C    O    Mg
    20     8    36    10
Direct
  0.2369695403745027  0.8796570343916770  0.1220466390212991
  0.1460081516286706  0.6279206145578016  0.3012528191385471
  0.3020707888310241  0.6895336207223579  0.3522360609627810
  0.1376560203681265  0.9000875277630485  0.3648634878709629
  0.2344927284213441  0.9192861507013887  0.5714180500282922
  0.7630215135304468  0.3796873536279435  0.3780146696056619
  0.8539799797876881  0.1279440099042191  0.1986448861564867
  0.6979393349478116  0.1895708965206708  0.1477071231044178
  0.8623221824033465  0.4000724572124952  0.1351878654277243
  0.7655089427181068  0.4192768632056172  0.9286384169177850
  0.7630509700624728  0.1203224112884627  0.8779851358726631
  0.8539889867864332  0.3720733496729665  0.6987341542556891
  0.6979135744476253  0.3104791942745493  0.6477325582988556
  0.8623255229642695  0.0999160595150812  0.6351337839251343
  0.7654974337241782  0.0807422738372665  0.4285785100518993
  0.2369468088668611  0.6202991910946523  0.6219647692406198
  0.1460297219833535  0.8720629501997337  0.8013532903577243
  0.3020699528724577  0.8104411038488735  0.8522759752223479
  0.1376642834974717  0.5999021007705920  0.8647693990679173
  0.2344840146576317  0.5807043050604861  0.0713327516000106
  0.0784254418812722  0.2589810582898906  0.2801442582817160
  0.4719849873715418  0.3330150547335720  0.2369513489185451
  0.9215565626534357  0.7590008491896754  0.2198397138694617
  0.5280394939954789  0.8330242064600384  0.2630923775542300
  0.9215787907280983  0.7410095860496995  0.7198711578916672
  0.5280160628931299  0.6669997281674611  0.7630523013222898
  0.0784363233439223  0.2409994171113965  0.7801577111183278
  0.4719778538234181  0.1669881190149951  0.7369339355886098
  0.2255693338445894  0.9843949936733196  0.1168768444175683
  0.2423069482611169  0.6050260520109632  0.2969439264947482
  0.2368608667161141  0.9230575861654913  0.4560924102361739
  0.0050670565651600  0.1589235172534416  0.1746662102469543
  0.0109240551602170  0.3651262578183818  0.3112933301586764
  0.2194550960505381  0.2543604124563785  0.3542446628293519
  0.4287892188252371  0.2001026197813118  0.2160993543344532
  0.4930287730228144  0.4011817799597068  0.3802982617051711
  0.4968936525545331  0.3977868930044366  0.1156490777050578
  0.7744448319013628  0.4844229617787548  0.3831820542676212
  0.7576955354522639  0.1050365752169284  0.2029612542492600
  0.7631423830753405  0.4230876015928544  0.0439603565017705
  0.9949472695100994  0.6588255330889083  0.3251286525594921
  0.9889873262997426  0.8652989591957621  0.1888188281649192
  0.7805127437785018  0.7543571649155183  0.1457573156039587
  0.5712188711751125  0.7000989174676207  0.2839643776637288
  0.5070103164772206  0.9012030025688063  0.1197470492758868
  0.5031187541394928  0.8977934064175415  0.3843704602388058
  0.7744465523026065  0.0155858838085550  0.8831322956125973
  0.7576876157818973  0.3949772982631927  0.7030409300930316
  0.7631199283951915  0.0769652014864661  0.5439003738309083
  0.9949651899904168  0.8410608009680374  0.8253374586552056
  0.9890448640679423  0.6348564131000103  0.6886692032800070
  0.7805406044925789  0.7456180158632648  0.6458075175087146
  0.5712180628904662  0.7999170117151166  0.7839313144921363
  0.5069420683380770  0.5988471754591629  0.6196842535821077
  0.5031205073630929  0.6022054320823429  0.8843533214193258
  0.2255355905016287  0.5155611550111701  0.6168101597402611
  0.2423197761941012  0.8949838031965456  0.7970421054126220
  0.2368536179744893  0.5768959927799244  0.9560082332559432
  0.0050312499206271  0.3411482732215134  0.6748533403606700
  0.0110231609889553  0.1346899877670467  0.8111807067351009
  0.2194723133109306  0.2456565687252095  0.8542666098268157
  0.4287938737324168  0.2999113751953999  0.7160761608016557
  0.4930267057823130  0.0987964821078862  0.8802764470013429
  0.4968817221647441  0.1022228894657715  0.6156468864065587
  0.3447380093628141  0.0692746367699471  0.3601824852925191
  0.3444207822799896  0.4314392904725395  0.4909529175684426
  0.6552473005107871  0.5692840291734598  0.1398384613684485
  0.6555940298669469  0.9314430725873208  0.0090371614429188
  0.6552492946659072  0.9307337661369814  0.6398221882310438
  0.6555903928094509  0.5685701375343228  0.5090696864648692
  0.3447668638352255  0.4307223765716088  0.8601731566742004
  0.3444287105095469  0.0685616027145741  0.9909846497994366
  0.0000099716778692  0.9999917864764711  0.9999971538496979
  0.9999921039154529  0.4999878427934661  0.4999871629681607
 
  0.00000000E+00  0.00000000E+00  0.00000000E+00
  0.00000000E+00  0.00000000E+00  0.00000000E+00
  0.00000000E+00  0.00000000E+00  0.00000000E+00
  0.00000000E+00  0.00000000E+00  0.00000000E+00
  0.00000000E+00  0.00000000E+00  0.00000000E+00
  0.00000000E+00  0.00000000E+00  0.00000000E+00
  0.00000000E+00  0.00000000E+00  0.00000000E+00
  0.00000000E+00  0.00000000E+00  0.00000000E+00
  0.00000000E+00  0.00000000E+00  0.00000000E+00
  0.00000000E+00  0.00000000E+00  0.00000000E+00
  0.00000000E+00  0.00000000E+00  0.00000000E+00
  0.00000000E+00  0.00000000E+00  0.00000000E+00
  0.00000000E+00  0.00000000E+00  0.00000000E+00
  0.00000000E+00  0.00000000E+00  0.00000000E+00
  0.00000000E+00  0.00000000E+00  0.00000000E+00
  0.00000000E+00  0.00000000E+00  0.00000000E+00
  0.00000000E+00  0.00000000E+00  0.00000000E+00
  0.00000000E+00  0.00000000E+00  0.00000000E+00
  0.00000000E+00  0.00000000E+00  0.00000000E+00
  0.00000000E+00  0.00000000E+00  0.00000000E+00
  0.00000000E+00  0.00000000E+00  0.00000000E+00
  0.00000000E+00  0.00000000E+00  0.00000000E+00
  0.00000000E+00  0.00000000E+00  0.00000000E+00
  0.00000000E+00  0.00000000E+00  0.00000000E+00
  0.00000000E+00  0.00000000E+00  0.00000000E+00
  0.00000000E+00  0.00000000E+00  0.00000000E+00
  0.00000000E+00  0.00000000E+00  0.00000000E+00
  0.00000000E+00  0.00000000E+00  0.00000000E+00
  0.00000000E+00  0.00000000E+00  0.00000000E+00
  0.00000000E+00  0.00000000E+00  0.00000000E+00
  0.00000000E+00  0.00000000E+00  0.00000000E+00
  0.00000000E+00  0.00000000E+00  0.00000000E+00
  0.00000000E+00  0.00000000E+00  0.00000000E+00
  0.00000000E+00  0.00000000E+00  0.00000000E+00
  0.00000000E+00  0.00000000E+00  0.00000000E+00
  0.00000000E+00  0.00000000E+00  0.00000000E+00
  0.00000000E+00  0.00000000E+00  0.00000000E+00
  0.00000000E+00  0.00000000E+00  0.00000000E+00
  0.00000000E+00  0.00000000E+00  0.00000000E+00
  0.00000000E+00  0.00000000E+00  0.00000000E+00
  0.00000000E+00  0.00000000E+00  0.00000000E+00
  0.00000000E+00  0.00000000E+00  0.00000000E+00
  0.00000000E+00  0.00000000E+00  0.00000000E+00
  0.00000000E+00  0.00000000E+00  0.00000000E+00
  0.00000000E+00  0.00000000E+00  0.00000000E+00
  0.00000000E+00  0.00000000E+00  0.00000000E+00
  0.00000000E+00  0.00000000E+00  0.00000000E+00
  0.00000000E+00  0.00000000E+00  0.00000000E+00
  0.00000000E+00  0.00000000E+00  0.00000000E+00
  0.00000000E+00  0.00000000E+00  0.00000000E+00
  0.00000000E+00  0.00000000E+00  0.00000000E+00
  0.00000000E+00  0.00000000E+00  0.00000000E+00
  0.00000000E+00  0.00000000E+00  0.00000000E+00
  0.00000000E+00  0.00000000E+00  0.00000000E+00
  0.00000000E+00  0.00000000E+00  0.00000000E+00
  0.00000000E+00  0.00000000E+00  0.00000000E+00
  0.00000000E+00  0.00000000E+00  0.00000000E+00
  0.00000000E+00  0.00000000E+00  0.00000000E+00
  0.00000000E+00  0.00000000E+00  0.00000000E+00
  0.00000000E+00  0.00000000E+00  0.00000000E+00
  0.00000000E+00  0.00000000E+00  0.00000000E+00
  0.00000000E+00  0.00000000E+00  0.00000000E+00
  0.00000000E+00  0.00000000E+00  0.00000000E+00
  0.00000000E+00  0.00000000E+00  0.00000000E+00
  0.00000000E+00  0.00000000E+00  0.00000000E+00
  0.00000000E+00  0.00000000E+00  0.00000000E+00
  0.00000000E+00  0.00000000E+00  0.00000000E+00
  0.00000000E+00  0.00000000E+00  0.00000000E+00
  0.00000000E+00  0.00000000E+00  0.00000000E+00
  0.00000000E+00  0.00000000E+00  0.00000000E+00
  0.00000000E+00  0.00000000E+00  0.00000000E+00
  0.00000000E+00  0.00000000E+00  0.00000000E+00
  0.00000000E+00  0.00000000E+00  0.00000000E+00
  0.00000000E+00  0.00000000E+00  0.00000000E+00
