rhomb
1
0 5 5
5 0 5
5 5 0
1 1
Direct
0 0 0
0.7 0.9 0.7
