$cell vectors
1.0
  5.1599975720044595    0.0000000000000000    0.0000000000000000
  0.0000000000000000    5.1599975720044595    0.0000000000000000
  0.0000000000000000    0.0000000000000000   10.0699952616443671
 2 2 16
Direct
  0.5000000000000000    0.5000000000000000    0.0000000000000000 # K1
  0.5000000000000000    0.5000000000000000    0.5000000000000000 # K2
  0.0000000000000000    0.0000000000000000    0.2504000000000002 # Sb1
  0.0000000000000000    0.0000000000000000    0.7495999999999997 # Sb2
  0.1876000000000005    0.1876000000000005    0.1280000000000000 # F1
  0.1744999999999996    0.1744999999999996    0.3824999999999998 # F2
  0.2529000000000005   -0.2520000000000005    0.2630000000000002 # F3
  0.1876000000000005   -0.1875999999999995    0.8719999999999998 # F4
  0.1744999999999996   -0.1744999999999996    0.6174999999999996 # F5
 -0.2520000000000005   -0.2528999999999995    0.7369999999999999 # F6
 -0.1876000000000005   -0.1875999999999995    0.1280000000000000 # F7
 -0.1744999999999996   -0.1744999999999996    0.3824999999999998 # F8
 -0.2529000000000005    0.2520000000000005    0.2630000000000002 # F9
 -0.1875999999999995    0.1876000000000005    0.8719999999999998 # F10
 -0.1744999999999996    0.1745000000000006    0.6174999999999996 # F11
  0.2520000000000005    0.2529000000000005    0.7369999999999999 # F12
  0.2529000000000005    0.2520000000000005    0.7369999999999999 # F13
 -0.2529000000000005   -0.2519999999999995    0.7369999999999999 # F14
  0.2520000000000005   -0.2529000000000005    0.2630000000000002 # F15
 -0.2520000000000005    0.2529000000000005    0.2630000000000002 # F16
