$cell vectors
1.0
  6.1689970972278161    0.0000000000000000    0.0000000000000000
  0.0000000000000000    6.1689970972278161    0.0000000000000000
  0.0000000000000000    0.0000000000000000    6.2129970765239761
 4 6 6
Direct
  0.0000000000000000    0.0000000000000000    0.0000000000000000 # Ag1
  0.4999999999999999    0.0000000000000000    0.5000000000000004 # Ag2
  0.4999999999999999    0.4999999999999999    0.0000000000000000 # Ag3
  0.0000000000000000    0.4999999999999999    0.5000000000000004 # Ag4
  0.0000000000000000    0.0000000000000000    0.5000000000000004 # Li1
  0.7499999999999996    0.2499999999999995    0.2499999999999998 # Li2
  0.2500000000000003    0.7499999999999996    0.7500000000000003 # Li3
  0.4999999999999999    0.0000000000000000    0.0000000000000000 # Li4
  0.4999999999999999    0.4999999999999999    0.5000000000000004 # Li5
  0.0000000000000000    0.4999999999999999    0.0000000000000000 # Li6
  0.2499999999999995    0.2499999999999995    0.2499999999999998 # Ge1
  0.2499999999999995    0.7499999999999996    0.2499999999999998 # Ge2
  0.7499999999999996    0.7499999999999996    0.7500000000000003 # Ge3
  0.7499999999999996    0.2500000000000003    0.7500000000000003 # Ge4
  0.2499999999999995    0.2500000000000003    0.7500000000000003 # Ge5
  0.7499999999999996    0.7499999999999996    0.2499999999999998 # Ge6
