$cell vectors
1.0
  3.9199981554762582    0.0000000000000000    0.0000000000000000
  0.0000000000000000    3.9199981554762582    0.0000000000000000
  0.0000000000000000    0.0000000000000000   15.2199928383542424
 2 2 4
Direct
  0.0000000000000000    0.5000000000000000    0.2499999999999999 # Ag1
  0.5000000000000000    0.0000000000000000    0.7500000000000001 # Ag2
  0.0000000000000000    0.0000000000000000    0.0000000000000000 # Tl1
  0.5000000000000000    0.5000000000000000    0.5000000000000002 # Tl2
  0.0000000000000000    0.0000000000000000    0.3690000000000002 # Te1
  0.5000000000000000    0.5000000000000000    0.1310000000000001 # Te2
  0.5000000000000000    0.5000000000000000    0.8690000000000003 # Te3
  0.0000000000000000    0.0000000000000000    0.6310000000000002 # Te4
