$cell vectors
1.0
  7.6179964154127893    0.0000000000000000    0.0000000000000000
  0.0000000000000000    7.6179964154127893    0.0000000000000000
  0.0000000000000000    0.0000000000000000    8.4999960003949475
 4 8 8
Direct
  0.0000000000000000    0.0000000000000000    0.0000000000000000 # Ba1
  0.5000000000000000    0.0000000000000000    0.0276000000000003 # Ba2
  0.0000000000000000    0.0000000000000000    0.4999999999999997 # Ba3
  0.0000000000000000    0.5000000000000000    0.5276000000000000 # Ba4
  0.3318000000000002    0.5000000000000000    0.8655000000000003 # Ge1
  0.5000000000000000    0.1656000000000003    0.6140999999999996 # Ge2
  0.5000000000000000    0.3318000000000002    0.3654999999999999 # Ge3
  0.8343999999999997    0.5000000000000000    0.1141000000000001 # Ge4
  0.6681999999999999    0.5000000000000000    0.8655000000000003 # Ge5
  0.5000000000000000    0.8344000000000005    0.6140999999999996 # Ge6
  0.5000000000000000    0.6681999999999999    0.3654999999999999 # Ge7
  0.1656000000000003    0.5000000000000000    0.1141000000000001 # Ge8
  0.2315000000000002    0.2488000000000002    0.2564000000000002 # P1
  0.7511999999999999    0.2315000000000002    0.7563999999999999 # P2
  0.7684999999999997    0.7511999999999999    0.2564000000000002 # P3
  0.2488000000000002    0.7684999999999997    0.7563999999999999 # P4
  0.7684999999999997    0.2488000000000002    0.2564000000000002 # P5
  0.2315000000000002    0.7511999999999999    0.2564000000000002 # P6
  0.7511999999999999    0.7684999999999997    0.7563999999999999 # P7
  0.2488000000000002    0.2315000000000002    0.7563999999999999 # P8
