$cell vectors
1.0
  6.3759969998256709    0.0000000000000000    0.0000000000000000
  0.0000000000000000    6.3759969998256709    0.0000000000000000
  0.0000000000000000    0.0000000000000000    8.3289960808575874
 2 16 2
Direct
  0.2499999999999996    0.2499999999999996    0.0000000000000000 # Ce1
  0.7499999999999994    0.7499999999999994    0.0000000000000000 # Ce2
  0.8829999999999997    0.1177999999999998    0.2162999999999998 # Se1
  0.1170000000000001    0.8822000000000001    0.7837000000000003 # Se2
  0.3822000000000000    0.8829999999999997    0.2162999999999998 # Se3
  0.6177999999999997    0.1170000000000001    0.7837000000000003 # Se4
  0.6170000000000000    0.3822000000000000    0.2162999999999998 # Se5
  0.3829999999999998    0.6177999999999997    0.7837000000000003 # Se6
  0.1177999999999998    0.6170000000000000    0.2162999999999998 # Se7
  0.8821999999999992    0.3829999999999998    0.7837000000000003 # Se8
  0.8829999999999997    0.3822000000000000    0.7837000000000003 # Se9
  0.1170000000000001    0.6177999999999997    0.2162999999999998 # Se10
  0.6170000000000000    0.1177999999999998    0.7837000000000003 # Se11
  0.3829999999999998    0.8821999999999992    0.2162999999999998 # Se12
  0.1177999999999998    0.8829999999999997    0.7837000000000003 # Se13
  0.8821999999999992    0.1170000000000001    0.2162999999999998 # Se14
  0.3822000000000000    0.6170000000000000    0.7837000000000003 # Se15
  0.6177999999999997    0.3829999999999998    0.2162999999999998 # Se16
  0.2499999999999996    0.2499999999999996    0.5000000000000003 # K1
  0.7499999999999994    0.7499999999999994    0.5000000000000003 # K2
