$cell vectors
1.0
  5.9239972125105469    0.0000000000000000    0.0000000000000000
  0.0000000000000000    5.9239972125105469    0.0000000000000000
  0.0000000000000000    0.0000000000000000   18.1299914690776909
 4 12 20
Direct
  0.0000000000000000    0.5000000000000000    0.1250000000000001 # I1
  0.5000000000000000    0.0000000000000000    0.8750000000000000 # I2
  0.5000000000000000    0.0000000000000000    0.3749999999999999 # I3
  0.0000000000000000    0.5000000000000000    0.6249999999999998 # I4
  0.0000000000000000    0.5000000000000000    0.3919999999999998 # K1
  0.0000000000000000    0.0000000000000000    0.0000000000000000 # K2
  0.0000000000000000    0.0000000000000000    0.2500000000000000 # K3
  0.5000000000000000    0.0000000000000000    0.6080000000000001 # K4
  0.5000000000000000    0.5000000000000000    0.0000000000000000 # K5
  0.5000000000000000    0.5000000000000000    0.7499999999999999 # K6
  0.5000000000000000    0.5000000000000000    0.2500000000000000 # K7
  0.0000000000000000    0.0000000000000000    0.7499999999999999 # K8
  0.5000000000000000    0.0000000000000000    0.1079999999999998 # K9
  0.5000000000000000    0.5000000000000000    0.5000000000000000 # K10
  0.0000000000000000    0.0000000000000000    0.5000000000000000 # K11
  0.0000000000000000    0.5000000000000010    0.8919999999999998 # K12
  0.0000000000000000    0.5000000000000000    0.2190000000000000 # O1
  0.1239999999999999    0.7780000000000004    0.1199999999999998 # O2
  0.5000000000000000    0.0000000000000000    0.7809999999999999 # O3
  0.3760000000000001   -0.2780000000000002    0.8799999999999998 # O4
 -0.2780000000000002    0.6240000000000000    0.1199999999999998 # O5
 -0.1239999999999999    0.2219999999999999    0.1199999999999998 # O6
  0.2780000000000002    0.3760000000000001    0.1199999999999998 # O7
  0.7780000000000004   -0.1239999999999999    0.8799999999999998 # O8
  0.2219999999999999    0.1239999999999999    0.8799999999999998 # O9
  0.5000000000000000    0.0000000000000000    0.2809999999999999 # O10
  0.6240000000000000   -0.2780000000000002    0.3799999999999998 # O11
  0.3760000000000001    0.2780000000000002    0.3799999999999998 # O12
  0.7780000000000004    0.1239999999999999    0.3799999999999998 # O13
  0.2219999999999999   -0.1239999999999999    0.3799999999999998 # O14
  0.6240000000000000    0.2780000000000002    0.8799999999999998 # O15
  0.0000000000000000    0.5000000000000000    0.7190000000000001 # O16
 -0.1239999999999999    0.7780000000000004    0.6199999999999998 # O17
  0.1239999999999999    0.2219999999999999    0.6199999999999998 # O18
 -0.2780000000000002    0.3760000000000001    0.6199999999999998 # O19
  0.2780000000000002    0.6240000000000000    0.6199999999999998 # O20
