$cell vectors
1.0
  6.5509969174808598    0.0000000000000000    0.0000000000000000
  0.0000000000000000    6.5509969174808598    0.0000000000000000
  0.0000000000000000    0.0000000000000000    6.8469967782004941
 2 8
Direct
  0.0000000000000000    0.0000000000000000    0.2419999999999997 # Nb1
  0.0000000000000000    0.0000000000000000    0.7420000000000001 # Nb2
  0.1440000000000003    0.3275999999999999    0.0000000000000000 # Te1
  0.6724000000000002    0.1440000000000003    0.0000000000000000 # Te2
  0.8559999999999998    0.6724000000000002    0.0000000000000000 # Te3
  0.3275999999999999    0.8559999999999998    0.0000000000000000 # Te4
  0.8559999999999998    0.3275999999999999    0.4999999999999997 # Te5
  0.1440000000000003    0.6724000000000002    0.4999999999999997 # Te6
  0.6724000000000002    0.8559999999999998    0.4999999999999997 # Te7
  0.3275999999999999    0.1440000000000003    0.4999999999999997 # Te8
