$cell vectors
1.0
  5.9969971781609965    0.0000000000000000    0.0000000000000000
  0.0000000000000000    5.9969971781609965    0.0000000000000000
  0.0000000000000000    0.0000000000000053   39.1909815589974500
 16 32 16
Direct
  0.7989000000000008    0.3010000000000002    0.9950000000000002 # I1
  0.3330000000000003    0.2408000000000003    0.9179999999999999 # I2
  1.1990000000000007    0.2989000000000002    0.7450000000000001 # I3
  1.2592000000000010   -0.1670000000000004    0.6680000000000000 # I4
  0.2011000000000002    0.6990000000000004    0.4950000000000001 # I5
  0.6670000000000008    0.7592000000000007    0.4180000000000001 # I6
 -0.1989999999999998    0.7010999999999999    0.2450000000000001 # I7
 -0.2591999999999999    1.1670000000000005    0.1679999999999999 # I8
  0.2989000000000008    1.1990000000000005    0.2549999999999999 # I9
 -0.1669999999999998    1.2592000000000008    0.3320000000000001 # I10
  0.7011000000000002   -0.1990000000000005    0.7550000000000000 # I11
  1.1670000000000007   -0.2592000000000006    0.8320000000000001 # I12
  0.3010000000000003    0.7988999999999999    0.0050000000000000 # I13
  0.2408000000000002    0.3330000000000002    0.0820000000000000 # I14
  0.6990000000000008    0.2010999999999997    0.5050000000000000 # I15
  0.7592000000000010    0.6670000000000003    0.5820000000000000 # I16
  0.7456000000000006    0.4759999999999999    0.9510000000000001 # C1
  0.5926000000000008    0.4491999999999998    0.9260000000000000 # C2
  0.6767000000000002    0.6437000000000002    0.9049999999999997 # C3
  0.8554000000000008    0.6791000000000005    0.9330000000000001 # C4
  1.0240000000000005    0.2455999999999998    0.7010000000000001 # C5
  1.0508000000000004    0.0926000000000001    0.6760000000000000 # C6
  0.8563000000000002    0.1766999999999996    0.6550000000000000 # C7
  0.8209000000000007    0.3554000000000002    0.6830000000000002 # C8
  0.2544000000000006    0.5239999999999998    0.4510000000000000 # C9
  0.4074000000000003    0.5508000000000001    0.4260000000000000 # C10
  0.3233000000000008    0.3562999999999997    0.4050000000000000 # C11
  0.1446000000000002    0.3209000000000002    0.4330000000000002 # C12
 -0.0240000000000003    0.7544000000000004    0.2010000000000001 # C13
 -0.0507999999999995    0.9074000000000002    0.1760000000000000 # C14
  0.1436999999999999    0.8233000000000007    0.1550000000000000 # C15
  0.1791000000000003    0.6446000000000002    0.1829999999999999 # C16
  0.2456000000000004    1.0240000000000002    0.2990000000000000 # C17
  0.0925999999999998    1.0508000000000002    0.3240000000000001 # C18
  0.1767000000000002    0.8562999999999998    0.3450000000000000 # C19
  0.3554000000000008    0.8209000000000004    0.3170000000000000 # C20
  0.7544000000000006   -0.0240000000000001    0.7990000000000000 # C21
  0.9074000000000003   -0.0508000000000002    0.8240000000000002 # C22
  0.8233000000000008    0.1437000000000001    0.8450000000000002 # C23
  0.6446000000000003    0.1790999999999996    0.8169999999999999 # C24
  0.4759999999999998    0.7456000000000006    0.0490000000000000 # C25
  0.4492000000000006    0.5926000000000007    0.0740000000000000 # C26
  0.6437000000000000    0.6767000000000001    0.0950000000000001 # C27
  0.6791000000000004    0.8554000000000007    0.0670000000000000 # C28
  0.5240000000000002    0.2544000000000001    0.5490000000000000 # C29
  0.5508000000000004    0.4073999999999998    0.5739999999999998 # C30
  0.3563000000000001    0.3233000000000003    0.5950000000000000 # C31
  0.3209000000000006    0.1445999999999997    0.5669999999999999 # C32
  0.6292000000000003    0.7299000000000000    0.8790000000000001 # O1
  1.0054000000000007    0.7994000000000008    0.9399999999999999 # O2
  0.7701000000000002    0.1291999999999997    0.6289999999999999 # O3
  0.7006000000000006    0.5054000000000002    0.6899999999999999 # O4
  0.3707999999999999    0.2701000000000000    0.3790000000000001 # O5
 -0.0053999999999998    0.2006000000000001    0.4399999999999999 # O6
  0.2298999999999997    0.8708000000000006    0.1290000000000000 # O7
  0.2994000000000004    0.4946000000000001    0.1900000000000000 # O8
  0.1292000000000002    0.7700999999999999    0.3710000000000000 # O9
  0.5053999999999998    0.7006000000000003    0.3100000000000000 # O10
  0.8708000000000007    0.2298999999999998    0.8710000000000000 # O11
  0.4946000000000003    0.2993999999999997    0.8100000000000001 # O12
  0.7298999999999999    0.6292000000000002    0.1210000000000001 # O13
  0.7994000000000004    1.0053999999999998    0.0599999999999999 # O14
  0.2701000000000003    0.3708000000000002    0.6210000000000001 # O15
  0.2006000000000005   -0.0054000000000003    0.5599999999999999 # O16
