$cell vectors
1.0
  6.1659970986394388    0.0000000000000000    0.0000000000000000
  0.0000000000000000    6.1659970986394388    0.0000000000000000
  0.0000000000000000    0.0000000000000000    6.0519971522811993
 6 2 4
Direct
  0.0000000000000000    0.0000000000000000    0.0000000000000000 # Li1
  0.0000000000000000    0.5000000000000000    0.2500000000000000 # Li2
  0.0000000000000000    0.5000000000000000    0.7500000000000000 # Li4
  0.0000000000000000    0.0000000000000000    0.5000000000000000 # Li6
  0.5000000000000000    0.0000000000000000    0.7500000000000000 # Li7
  0.5000000000000000    0.0000000000000000    0.2500000000000000 # Li8
  0.5000000000000000    0.5000000000000000    0.2500000000000000 # Mn1
  0.5000000000000000    0.5000000000000000    0.7500000000000000 # Mn2
  0.2500000000000000    0.2500000000000000    0.0000000000000000 # As1
  0.7499999999999999    0.7499999999999999    0.0000000000000000 # As2
  0.7499999999999999    0.2500000000000000    0.5000000000000000 # As3
  0.2500000000000000    0.7499999999999999    0.5000000000000000 # As4
