$cell vectors
1.0
 10.5659950282556494    0.0000000000000000    0.0000000000000000
  0.0000000000000000   10.5659950282556494    0.0000000000000000
  0.0000000000000000    0.0000000000000053   25.2199881329365390
 28 96 96
Direct
  0.2500000000000002    0.2499999999999998    0.7499999999999997 # Pr1
  0.2489999999999998    0.2519999999999999    0.3230000000000000 # Pr2
  0.2520000000000001    0.2519999999999999    0.4680999999999997 # Pr3
  0.2469999999999999    0.2499999999999999    0.5971999999999998 # Pr4
  0.2500000000000002    0.7499999999999998    0.2499999999999999 # Pr5
  0.2520000000000001    0.7509999999999999    0.6769999999999998 # Pr6
  0.2520000000000001    0.7479999999999997    0.5318999999999998 # Pr7
  0.2500000000000002    0.7529999999999999    0.4027999999999999 # Pr8
  0.7499999999999999    0.7499999999999996    0.7499999999999997 # Pr9
  0.7510000000000002    0.7479999999999998    0.3230000000000000 # Pr10
  0.7479999999999999    0.7479999999999997    0.4680999999999997 # Pr11
  0.7530000000000001    0.7499999999999996    0.5971999999999998 # Pr12
  0.7499999999999999    0.2500000000000001    0.2499999999999999 # Pr13
  0.7479999999999999    0.2489999999999995    0.6769999999999998 # Pr14
  0.7479999999999999    0.2519999999999998    0.5318999999999998 # Pr15
  0.7499999999999999    0.2469999999999997    0.4027999999999999 # Pr16
  0.2520000000000001    0.2489999999999997    0.1770000000000000 # Pr17
  0.2520000000000001    0.2520000000000001    0.0319000000000000 # Pr18
  0.2500000000000002    0.2469999999999999    0.9027999999999997 # Pr19
  0.7479999999999999    0.7510000000000001    0.1770000000000000 # Pr20
  0.7479999999999999    0.7479999999999999    0.0319000000000000 # Pr21
  0.7499999999999999    0.7529999999999997    0.9027999999999997 # Pr22
  0.7510000000000002    0.2519999999999997    0.8229999999999996 # Pr23
  0.7479999999999999    0.2519999999999996    0.9680999999999995 # Pr24
  0.7529999999999997    0.2500000000000001    0.0971999999999999 # Pr25
  0.2489999999999998    0.7479999999999994    0.8229999999999996 # Pr26
  0.2520000000000001    0.7479999999999994    0.9680999999999995 # Pr27
  0.2469999999999999    0.7499999999999999    0.0971999999999999 # Pr28
  0.9820000000000000    0.1293999999999998    0.0407000000000000 # Re1
  0.9909999999999998    0.1285999999999997    0.2065999999999998 # Re2
  0.0164000000000001    0.1283999999999999    0.3771999999999999 # Re3
  0.1281999999999998    0.4899999999999997    0.0847000000000000 # Re4
  0.1281999999999998    0.4868000000000001    0.2496000000000000 # Re5
  0.1277000000000000    0.4889999999999998    0.4155999999999998 # Re6
  0.4890000000000000    0.3717999999999999    0.1238999999999998 # Re7
  0.5059999999999998    0.3721999999999998    0.2926999999999998 # Re8
  0.5110000000000000    0.3721999999999997    0.4589999999999998 # Re9
  0.3729000000000001    0.0069999999999998    0.0000000000000000 # Re10
  0.3725999999999999    0.9909999999999997    0.1674000000000000 # Re11
  0.3724000000000001    0.9910000000000001    0.3327999999999998 # Re12
  0.1294000000000003    0.0179999999999996    0.9592999999999997 # Re13
  0.1286000000000004    0.0089999999999999    0.7933999999999997 # Re14
  0.1284000000000001    0.9835999999999996    0.6227999999999997 # Re15
  0.4900000000000002    0.8717999999999998    0.9152999999999998 # Re16
  0.4868000000000002    0.8717999999999999    0.7503999999999997 # Re17
  0.4890000000000000    0.8722999999999995    0.5843999999999999 # Re18
  0.3718000000000000    0.5109999999999996    0.8760999999999997 # Re19
  0.3721999999999999    0.4939999999999999    0.7072999999999998 # Re20
  0.3721999999999999    0.4889999999999997    0.5409999999999998 # Re21
  0.0070000000000003    0.6270999999999999    0.0000000000000000 # Re22
  0.9910000000000003    0.6273999999999996    0.8325999999999998 # Re23
  0.9910000000000003    0.6275999999999995    0.6671999999999999 # Re24
  0.0180000000000001    0.8705999999999997    0.0407000000000000 # Re25
  0.0090000000000003    0.8713999999999996    0.2065999999999998 # Re26
  0.9835999999999999    0.8715999999999996    0.3771999999999999 # Re27
  0.8717999999999998    0.5099999999999998    0.0847000000000000 # Re28
  0.8717999999999998    0.5131999999999997    0.2496000000000000 # Re29
  0.8722999999999995    0.5109999999999998    0.4155999999999998 # Re30
  0.5110000000000000    0.6282000000000000    0.1238999999999998 # Re31
  0.4939999999999997    0.6278000000000000    0.2926999999999998 # Re32
  0.4890000000000000    0.6277999999999999    0.4589999999999998 # Re33
  0.6270999999999999    0.9929999999999997    0.0000000000000000 # Re34
  0.6273999999999995    0.0089999999999997    0.1674000000000000 # Re35
  0.6275999999999998    0.0090000000000001    0.3327999999999998 # Re36
  0.8705999999999997    0.9819999999999995    0.9592999999999997 # Re37
  0.8713999999999997    0.9909999999999999    0.7933999999999997 # Re38
  0.8715999999999998    0.0163999999999998    0.6227999999999997 # Re39
  0.5100000000000003    0.1281999999999999    0.9152999999999998 # Re40
  0.5131999999999998    0.1282000000000000    0.7503999999999997 # Re41
  0.5110000000000000    0.1276999999999996    0.5843999999999999 # Re42
  0.6282000000000001    0.4889999999999995    0.8760999999999997 # Re43
  0.6278000000000001    0.5060000000000000    0.7072999999999998 # Re44
  0.6278000000000001    0.5109999999999998    0.5410000000000000 # Re45
  0.9929999999999997    0.3729000000000001    0.0000000000000000 # Re46
  0.0090000000000003    0.3725999999999995    0.8325999999999996 # Re47
  0.0090000000000003    0.3723999999999998    0.6671999999999999 # Re48
  0.1294000000000003    0.9819999999999998    0.4592999999999999 # Re49
  0.1285999999999999    0.9909999999999997    0.2933999999999998 # Re50
  0.1284000000000001    0.0164000000000000    0.1227999999999999 # Re51
  0.4899999999999997    0.1282000000000001    0.4152999999999997 # Re52
  0.4867999999999997    0.1281999999999997    0.2504000000000000 # Re53
  0.4890000000000000    0.1276999999999999    0.0843999999999999 # Re54
  0.3718000000000000    0.4889999999999998    0.3760999999999997 # Re55
  0.3721999999999999    0.5059999999999997    0.2072999999999999 # Re56
  0.3721999999999999    0.5110000000000000    0.0409999999999998 # Re57
  0.0070000000000003    0.3728999999999998    0.4999999999999998 # Re58
  0.9909999999999998    0.3725999999999998    0.3325999999999998 # Re59
  0.9909999999999998    0.3724000000000000    0.1672000000000000 # Re60
  0.8705999999999997    0.0179999999999999    0.4592999999999999 # Re61
  0.8713999999999997    0.0090000000000001    0.2933999999999998 # Re62
  0.8715999999999998    0.9835999999999998    0.1227999999999999 # Re63
  0.5100000000000003    0.8718000000000000    0.4152999999999997 # Re64
  0.5131999999999998    0.8717999999999997    0.2503999999999998 # Re65
  0.5110000000000000    0.8722999999999995    0.0843999999999999 # Re66
  0.6282000000000001    0.5109999999999998    0.3760999999999997 # Re67
  0.6278000000000001    0.4939999999999996    0.2072999999999999 # Re68
  0.6278000000000001    0.4890000000000000    0.0409999999999998 # Re69
  0.9929999999999997    0.6270999999999997    0.4999999999999998 # Re70
  0.0090000000000003    0.6273999999999998    0.3325999999999998 # Re71
  0.0090000000000003    0.6275999999999997    0.1672000000000000 # Re72
  0.0180000000000001    0.1294000000000000    0.5406999999999997 # Re73
  0.0090000000000003    0.1286000000000000    0.7065999999999998 # Re74
  0.9835999999999999    0.1283999999999996    0.8771999999999999 # Re75
  0.8717999999999998    0.4899999999999999    0.5846999999999998 # Re76
  0.8718000000000002    0.4867999999999998    0.7495999999999997 # Re77
  0.8722999999999999    0.4889999999999995    0.9155999999999997 # Re78
  0.5110000000000000    0.3717999999999996    0.6238999999999998 # Re79
  0.4939999999999997    0.3721999999999995    0.7926999999999998 # Re80
  0.4890000000000000    0.3721999999999994    0.9589999999999997 # Re81
  0.6270999999999999    0.0070000000000000    0.4999999999999998 # Re82
  0.6274000000000001    0.9910000000000000    0.6673999999999997 # Re83
  0.6275999999999998    0.9909999999999999    0.8327999999999995 # Re84
  0.9820000000000000    0.8705999999999995    0.5406999999999995 # Re85
  0.9910000000000003    0.8713999999999994    0.7065999999999998 # Re86
  0.0164000000000001    0.8715999999999994    0.8771999999999999 # Re87
  0.1282000000000003    0.5100000000000000    0.5846999999999998 # Re88
  0.1282000000000003    0.5132000000000001    0.7495999999999997 # Re89
  0.1277000000000000    0.5109999999999996    0.9155999999999997 # Re90
  0.4890000000000000    0.6281999999999998    0.6239000000000000 # Re91
  0.5059999999999998    0.6277999999999997    0.7926999999999998 # Re92
  0.5110000000000000    0.6277999999999997    0.9589999999999997 # Re93
  0.3729000000000001    0.9929999999999994    0.4999999999999998 # Re94
  0.3725999999999999    0.0090000000000000    0.6673999999999997 # Re95
  0.3724000000000001    0.0089999999999999    0.8327999999999995 # Re96
  0.5002000000000000    0.1844000000000001    0.4992999999999998 # B1
  0.3161000000000003    0.9987999999999995    0.9176999999999996 # B2
  0.3161999999999997    0.0010000000000002    0.0838000000000001 # B3
  0.9995000000000002    0.1849999999999999    0.2927999999999999 # B4
  0.3152999999999998    0.5005999999999999    0.2901999999999999 # B5
  0.4987999999999997    0.1834999999999996    0.6653000000000000 # B6
  0.5018000000000000    0.1833999999999999    0.3329999999999999 # B7
  0.3156999999999998    0.4982999999999999    0.1241000000000001 # B8
  0.0016999999999999    0.1845000000000001    0.1268000000000001 # B9
  0.3172999999999999    0.0015999999999999    0.2509000000000000 # B10
  0.3161000000000003    0.5013000000000000    0.4529999999999998 # B11
  0.9987999999999999    0.1838999999999997    0.4593999999999999 # B12
  0.1843999999999998    0.4997999999999997    0.5006999999999997 # B13
  0.9987999999999999    0.6838999999999997    0.0823000000000001 # B14
  0.0010000000000003    0.6837999999999995    0.9161999999999998 # B15
  0.1850000000000001    0.0005000000000000    0.7071999999999999 # B16
  0.5006000000000000    0.6846999999999999    0.7097999999999999 # B17
  0.1834999999999999    0.5011999999999995    0.3346999999999999 # B18
  0.1834000000000001    0.4981999999999997    0.6669999999999999 # B19
  0.4983000000000000    0.6842999999999998    0.8758999999999997 # B20
  0.1845000000000002    0.9982999999999999    0.8731999999999996 # B21
  0.0016000000000000    0.6826999999999994    0.7490999999999995 # B22
  0.5013000000000002    0.6839000000000000    0.5469999999999999 # B23
  0.1839000000000000    0.0011999999999997    0.5405999999999997 # B24
  0.4998000000000000    0.8155999999999999    0.4992999999999998 # B25
  0.6839000000000002    0.0011999999999995    0.9176999999999996 # B26
  0.6838000000000000    0.9989999999999997    0.0838000000000001 # B27
  0.0004999999999999    0.8149999999999999    0.2927999999999999 # B28
  0.6847000000000002    0.4993999999999998    0.2901999999999999 # B29
  0.5012000000000002    0.8164999999999997    0.6653000000000000 # B30
  0.4982000000000000    0.8165999999999997    0.3329999999999999 # B31
  0.6842999999999997    0.5017000000000000    0.1240999999999997 # B32
  0.9982999999999996    0.8154999999999996    0.1268000000000001 # B33
  0.6826999999999998    0.9983999999999994    0.2509000000000000 # B34
  0.6838999999999997    0.4986999999999996    0.4529999999999998 # B35
  0.0012000000000000    0.8160999999999999    0.4593999999999999 # B36
  0.8155999999999995    0.5001999999999998    0.5006999999999997 # B37
  0.0012000000000000    0.3160999999999998    0.0823000000000001 # B38
  0.9989999999999997    0.3161999999999997    0.9161999999999998 # B39
  0.8150000000000001    0.9994999999999998    0.7071999999999999 # B40
  0.4994000000000000    0.3153000000000000    0.7097999999999999 # B41
  0.8165000000000000    0.4987999999999996    0.3346999999999999 # B42
  0.8165999999999999    0.5017999999999997    0.6669999999999999 # B43
  0.5017000000000001    0.3156999999999999    0.8758999999999997 # B44
  0.8154999999999997    0.0016999999999999    0.8731999999999996 # B45
  0.9984000000000000    0.3172999999999999    0.7490999999999995 # B46
  0.4986999999999999    0.3161000000000000    0.5469999999999998 # B47
  0.8161000000000002    0.9987999999999997    0.5405999999999997 # B48
  0.1843999999999998    0.5002000000000000    0.0007000000000002 # B49
  0.9987999999999999    0.3161000000000000    0.5822999999999998 # B50
  0.0010000000000003    0.3161999999999999    0.4161999999999999 # B51
  0.1850000000000001    0.9995000000000001    0.2072000000000000 # B52
  0.5006000000000000    0.3152999999999997    0.2097999999999999 # B53
  0.1834999999999999    0.4987999999999998    0.8346999999999997 # B54
  0.1834000000000001    0.5017999999999999    0.1670000000000001 # B55
  0.4983000000000000    0.3156999999999996    0.3758999999999998 # B56
  0.1845000000000002    0.0017000000000002    0.3732000000000000 # B57
  0.0016000000000000    0.3172999999999997    0.2490999999999998 # B58
  0.5012999999999996    0.3160999999999998    0.0470000000000002 # B59
  0.1839000000000000    0.9987999999999999    0.0405999999999999 # B60
  0.8155999999999995    0.4998000000000000    0.0007000000000000 # B61
  0.0012000000000000    0.6838999999999998    0.5822999999999998 # B62
  0.9989999999999997    0.6837999999999997    0.4161999999999999 # B63
  0.8150000000000001    0.0004999999999998    0.2072000000000000 # B64
  0.4994000000000000    0.6847000000000001    0.2097999999999999 # B65
  0.8165000000000000    0.5011999999999998    0.8346999999999997 # B66
  0.8165999999999999    0.4981999999999999    0.1670000000000001 # B67
  0.5017000000000001    0.6843000000000000    0.3758999999999998 # B68
  0.8154999999999997    0.9983000000000001    0.3732000000000000 # B69
  0.9983999999999995    0.6826999999999996    0.2490999999999998 # B70
  0.4986999999999999    0.6838999999999997    0.0470000000000000 # B71
  0.8161000000000002    0.0012000000000000    0.0405999999999999 # B72
  0.4998000000000000    0.1843999999999998    0.9992999999999997 # B73
  0.6839000000000002    0.9987999999999997    0.4176999999999999 # B74
  0.6838000000000000    0.0010000000000000    0.5837999999999999 # B75
  0.0004999999999999    0.1849999999999997    0.7927999999999995 # B76
  0.6847000000000002    0.5005999999999996    0.7901999999999996 # B77
  0.5011999999999998    0.1834999999999999    0.1652999999999999 # B78
  0.4982000000000000    0.1833999999999997    0.8329999999999997 # B79
  0.6843000000000002    0.4982999999999996    0.6241000000000000 # B80
  0.9983000000000003    0.1844999999999999    0.6267999999999998 # B81
  0.6826999999999998    0.0015999999999996    0.7508999999999996 # B82
  0.6839000000000002    0.5012999999999997    0.9529999999999997 # B83
  0.0012000000000000    0.1839000000000000    0.9593999999999997 # B84
  0.5002000000000000    0.8155999999999995    0.9992999999999997 # B85
  0.3160999999999998    0.0011999999999998    0.4176999999999999 # B86
  0.3162000000000001    0.9989999999999993    0.5837999999999999 # B87
  0.9995000000000002    0.8149999999999996    0.7927999999999998 # B88
  0.3153000000000003    0.4993999999999996    0.7901999999999996 # B89
  0.4987999999999997    0.8164999999999999    0.1652999999999999 # B90
  0.5018000000000000    0.8165999999999994    0.8329999999999997 # B91
  0.3156999999999998    0.5016999999999998    0.6240999999999997 # B92
  0.0017000000000004    0.8154999999999993    0.6267999999999998 # B93
  0.3173000000000003    0.9983999999999996    0.7508999999999998 # B94
  0.3161000000000003    0.4986999999999994    0.9529999999999998 # B95
  0.9987999999999999    0.8160999999999997    0.9593999999999999 # B96
