$cell vectors
1.0
 11.4079946320594772    0.0000000000000000    0.0000000000000000
  0.0000000000000000   11.4079946320594772    0.0000000000000000
  0.0000000000000000    0.0000000000000000   10.2559951741235977
 12 16 30
Direct
  0.0000000000000000    0.0000000000000000    0.3044000000000000 # Ba1
  0.2484000000000002    0.1304000000000000    0.0000000000000000 # Ba2
  0.5000000000000000    0.5000000000000000    0.8043999999999999 # Ba3
  0.7483999999999996    0.6304000000000000    0.4999999999999999 # Ba4
  0.0000000000000000    0.0000000000000000    0.6955999999999999 # Ba5
  0.7515999999999998    0.8695999999999998    0.0000000000000000 # Ba6
  0.5000000000000000    0.5000000000000000    0.1956000000000000 # Ba7
  0.2515999999999998    0.3696000000000000    0.4999999999999999 # Ba8
  0.8695999999999998    0.2484000000000002    0.0000000000000000 # Ba9
  0.3696000000000000    0.7483999999999996    0.4999999999999999 # Ba10
  0.1304000000000000    0.7515999999999998    0.0000000000000000 # Ba11
  0.6304000000000000    0.2515999999999998    0.4999999999999999 # Ba12
  0.1536999999999998    0.4383999999999998    0.1364999999999998 # Fe1
  0.6536999999999997    0.9383999999999998    0.6364999999999997 # Fe2
  0.8462999999999997    0.5615999999999998    0.8634999999999996 # Fe3
  0.3463000000000002    0.0615999999999998    0.3635000000000001 # Fe4
  0.5615999999999998    0.1536999999999998    0.1364999999999998 # Fe5
  0.0616000000000002    0.6536999999999997    0.6364999999999997 # Fe6
  0.4384000000000002    0.8463000000000002    0.8634999999999996 # Fe7
  0.9383999999999998    0.3462999999999997    0.3635000000000001 # Fe8
  0.8462999999999997    0.5615999999999998    0.1364999999999998 # Fe9
  0.3463000000000002    0.0615999999999998    0.6364999999999997 # Fe10
  0.1537000000000002    0.4384000000000002    0.8634999999999996 # Fe11
  0.6536999999999997    0.9383999999999998    0.3635000000000001 # Fe12
  0.4384000000000002    0.8462999999999997    0.1364999999999998 # Fe13
  0.9383999999999998    0.3463000000000002    0.6364999999999997 # Fe14
  0.5615999999999998    0.1536999999999998    0.8634999999999996 # Fe15
  0.0616000000000002    0.6536999999999997    0.3635000000000001 # Fe16
  0.0790000000000000    0.2700000000000001    0.2266000000000001 # S1
  0.3035000000000001    0.3950999999999998    0.0000000000000000 # S2
  0.0000000000000000    0.5000000000000000    0.4999999999999999 # S3
  0.0000000000000000    0.0000000000000000    0.0000000000000000 # S4
  0.5790000000000000    0.7699999999999996    0.7266000000000000 # S5
  0.8035000000000002    0.8950999999999999    0.4999999999999999 # S6
  0.5000000000000000    0.0000000000000000    0.0000000000000000 # S7
  0.5000000000000000    0.5000000000000000    0.4999999999999999 # S8
  0.9209999999999995    0.7299999999999999    0.7733999999999999 # S9
  0.6964999999999999    0.6049000000000001    0.0000000000000000 # S10
  0.4210000000000000    0.2299999999999999    0.2733999999999999 # S11
  0.1964999999999998    0.1048999999999996    0.4999999999999999 # S12
  0.7299999999999999    0.0790000000000000    0.2266000000000001 # S13
  0.6049000000000001    0.3034999999999996    0.0000000000000000 # S14
  0.5000000000000000    0.0000000000000000    0.4999999999999999 # S15
  0.2299999999999999    0.5790000000000000    0.7266000000000000 # S16
  0.1049000000000001    0.8035000000000002    0.4999999999999999 # S17
  0.0000000000000000    0.5000000000000000    0.0000000000000000 # S18
  0.2700000000000001    0.9209999999999995    0.7733999999999999 # S19
  0.3950999999999998    0.6964999999999999    0.0000000000000000 # S20
  0.7699999999999996    0.4210000000000000    0.2733999999999999 # S21
  0.8950999999999999    0.1964999999999998    0.4999999999999999 # S22
  0.9209999999999995    0.7299999999999999    0.2266000000000001 # S23
  0.4210000000000000    0.2299999999999999    0.7266000000000000 # S24
  0.0790000000000000    0.2700000000000001    0.7733999999999999 # S25
  0.5790000000000000    0.7699999999999996    0.2733999999999999 # S26
  0.2700000000000001    0.9209999999999995    0.2266000000000001 # S27
  0.7699999999999996    0.4210000000000000    0.7266000000000000 # S28
  0.7299999999999999    0.0790000000000000    0.7733999999999999 # S29
  0.2299999999999999    0.5790000000000000    0.2733999999999999 # S30
