$cell vectors
1.0
  8.5159959928662783    0.0000000000000000    0.0000000000000000
  0.0000000000000000    8.5159959928662783    0.0000000000000000
  0.0000000000000000    0.0000000000000000    6.7129968412530898
 2 4 8
Direct
  0.2500000000000002    0.2500000000000002    0.0000000000000000 # Ba1
  0.7499999999999998    0.7499999999999998    0.0000000000000000 # Ba2
  0.7499999999999998    0.2500000000000002    0.0000000000000000 # Al1
  0.7499999999999998    0.2500000000000002    0.5000000000000004 # Al2
  0.2500000000000002    0.7499999999999998    0.0000000000000000 # Al3
  0.2500000000000002    0.7499999999999998    0.5000000000000004 # Al4
  0.9180000000000001    0.0820000000000003    0.7484000000000004 # Te1
  0.0820000000000003    0.9179999999999995    0.2516000000000003 # Te2
  0.4179999999999999    0.9180000000000001    0.7484000000000004 # Te3
  0.5820000000000000    0.0819999999999997    0.2516000000000003 # Te4
  0.5820000000000000    0.4179999999999999    0.7484000000000004 # Te5
  0.4179999999999999    0.5820000000000000    0.2516000000000003 # Te6
  0.0820000000000003    0.5820000000000000    0.7484000000000004 # Te7
  0.9180000000000001    0.4179999999999999    0.2516000000000003 # Te8
