$cell vectors
1.0
  7.4899964756421369    0.0000000000000000    0.0000000000000000
  0.0000000000000000    7.4899964756421369    0.0000000000000000
  0.0000000000000000    0.0000000000000000   13.2399937700269543
 4 16 64
Direct
 -0.0710000000000003   -0.0710000000000003    0.0000000000000000 # U1
  0.5710000000000004    0.4289999999999998    0.7500000000000000 # U2
  1.0709999999999997    1.0709999999999997    0.4999999999999998 # U3
  0.4289999999999998    0.5709999999999996    0.2500000000000001 # U4
  0.2107999999999997   -0.0789999999999997   -0.1030000000000000 # B1
  0.7969999999999998    0.6560000000000001    0.8750000000000000 # B2
  0.5789999999999997    0.7107999999999997    0.6469999999999998 # B3
  0.8439999999999999    0.2969999999999998    0.6249999999999999 # B4
  0.7892000000000005    1.0789999999999995    0.3969999999999997 # B5
  0.2030000000000003    0.3439999999999999    0.3749999999999997 # B6
  0.4209999999999997    0.2892000000000003    0.1470000000000001 # B7
  0.1560000000000002    0.7029999999999996    0.1250000000000001 # B8
  0.7107999999999997    0.5789999999999997    0.3529999999999997 # B9
  0.2969999999999998    0.8439999999999999    0.3749999999999997 # B10
  0.2892000000000003    0.4210000000000004    0.8530000000000000 # B11
  0.7030000000000004    0.1560000000000002    0.8750000000000000 # B12
 -0.0789999999999997    0.2107999999999997    0.1030000000000000 # B13
  0.6560000000000001    0.7969999999999998    0.1250000000000001 # B14
  1.0789999999999995    0.7892000000000005    0.6029999999999999 # B15
  0.3439999999999999    0.2030000000000003    0.6249999999999999 # B16
  0.3751000000000001    0.3489999999999998    0.3816000000000002 # H1
  0.1460000000000003    0.4469000000000001    0.3149000000000000 # H2
  0.1478999999999998    0.3685999999999998    0.4586000000000001 # H3
  0.1763999999999998    0.1781999999999997    0.3431999999999998 # H4
  0.0101000000000002    0.0894000000000001    0.1464000000000001 # H5
  0.2873999999999997    0.3437000000000004    0.1587000000000000 # H6
  0.4985999999999999    0.2693999999999997    0.2361999999999998 # H7
  0.4214000000000002    0.1467999999999999    0.0980999999999999 # H8
  0.1510000000000002    0.8750999999999997    0.1316000000000000 # H9
  0.0530999999999999    0.6459999999999996    0.0648999999999999 # H10
  0.1314000000000002    0.6478999999999999    0.2086000000000000 # H11
  0.3218000000000004    0.6763999999999999    0.0932000000000001 # H12
  0.4106000000000000    0.5101000000000002    0.8963999999999998 # H13
  0.1562999999999997   -0.2126000000000003   -0.0913000000000002 # H14
  0.2306000000000003    0.9985999999999999    0.9861999999999996 # H15
  0.3532000000000001   -0.0785999999999998   -0.1518999999999998 # H16
  0.6249000000000000    0.6510000000000002    0.8815999999999999 # H17
  0.8539999999999999    0.5530999999999999    0.8148999999999998 # H18
  0.8520999999999996    0.6314000000000002    0.9585999999999999 # H19
  0.8236000000000003    0.8217999999999996    0.8431999999999996 # H20
  0.9898999999999998    0.9106000000000001    0.6463999999999999 # H21
  0.7126000000000003    0.6562999999999998    0.6587000000000001 # H22
  0.5014000000000001    0.7305999999999997    0.7361999999999994 # H23
  0.5785999999999999    0.8532000000000003    0.5981000000000000 # H24
  0.8489999999999999    0.1248999999999999    0.6315999999999997 # H25
  0.9469000000000002    0.3539999999999998    0.5648999999999996 # H26
  0.8685999999999998    0.3521000000000002    0.7086000000000002 # H27
  0.6781999999999997    0.3236000000000002    0.5931999999999998 # H28
  0.5894000000000003    0.4898999999999998    0.3963999999999998 # H29
  0.8436999999999998    1.2125999999999999    0.4087000000000001 # H30
  0.7693999999999998    0.0014000000000001    0.4861999999999999 # H31
  0.6468000000000000    1.0786000000000000    0.3481000000000000 # H32
  0.8751000000000002    0.1510000000000002    0.8683999999999999 # H33
  0.6459999999999996    0.0530999999999999    0.9350999999999998 # H34
  0.6478999999999999    0.1314000000000002    0.7913999999999995 # H35
  0.6763999999999999    0.3218000000000004    0.9067999999999999 # H36
  0.5100999999999996    0.4106000000000000    0.1036000000000000 # H37
 -0.2125999999999997    0.1562999999999997    0.0913000000000002 # H38
  0.9985999999999999    0.2306000000000003    0.0137999999999999 # H39
 -0.0785999999999998    0.3532000000000001    0.1518999999999998 # H40
  0.1248999999999999    0.8489999999999999    0.3683999999999997 # H41
  0.3539999999999998    0.9469000000000002    0.4350999999999999 # H42
  0.3521000000000002    0.8685999999999998    0.2913999999999998 # H43
  0.3236000000000002    0.6781999999999997    0.4068000000000001 # H44
  0.4898999999999998    0.5894000000000003    0.6035999999999998 # H45
  1.2125999999999999    0.8436999999999998    0.5912999999999999 # H46
  0.0014000000000001    0.7693999999999998    0.5137999999999997 # H47
  1.0786000000000000    0.6468000000000000    0.6518999999999997 # H48
  0.3489999999999998    0.3751000000000001    0.6183999999999999 # H49
  0.4469000000000001    0.1460000000000003    0.6851000000000000 # H50
  0.3685999999999998    0.1478999999999998    0.5414000000000000 # H51
  0.1781999999999997    0.1763999999999998    0.6567999999999997 # H52
  0.0894000000000001    0.0101000000000002    0.8536000000000000 # H53
  0.3437000000000004    0.2874000000000004    0.8412999999999996 # H54
  0.2693999999999997    0.4985999999999999    0.7637999999999999 # H55
  0.1467999999999999    0.4214000000000002    0.9018999999999997 # H56
  0.6510000000000002    0.6249000000000000    0.1184000000000001 # H57
  0.5530999999999999    0.8539999999999999    0.1850999999999998 # H58
  0.6313999999999995    0.8520999999999996    0.0414000000000001 # H59
  0.8217999999999996    0.8235999999999996    0.1568000000000000 # H60
  0.9106000000000001    0.9898999999999998    0.3536000000000001 # H61
  0.6562999999999998    0.7126000000000003    0.3412999999999999 # H62
  0.7305999999999997    0.5014000000000001    0.2638000000000000 # H63
  0.8532000000000003    0.5785999999999999    0.4018999999999999 # H64
