$cell vectors
1.0
  9.3809955858476446    0.0000000000000000    0.0000000000000000
  0.0000000000000000    9.3809955858476446    0.0000000000000000
  0.0000000000000000    0.0000000000000000    4.6629978058637214
 24 8
Direct
  0.4079999999999999    0.9080000000000000    0.0000000000000000 # V1
  0.2028000000000000    0.7028000000000001    0.0000000000000000 # V2
  0.1486000000000000    0.0000000000000000    0.7500000000000000 # V3
  0.0920000000000002    0.5920000000000003    0.5000000000000000 # V4
  0.2972000000000001    0.7972000000000001    0.5000000000000000 # V5
  0.3514000000000000    0.5000000000000000    0.7500000000000000 # V6
  0.5920000000000003    0.9080000000000000    0.5000000000000000 # V7
  0.7972000000000001    0.7028000000000001    0.5000000000000000 # V8
  0.5000000000000000    0.6486000000000002    0.2500000000000000 # V9
  0.5920000000000003    0.0920000000000002    0.0000000000000000 # V10
  0.7972000000000001    0.2972000000000001    0.0000000000000000 # V11
  0.8514000000000000    0.0000000000000000    0.7500000000000000 # V12
  0.4079999999999999    0.0920000000000002    0.5000000000000000 # V13
  0.2028000000000000    0.2972000000000001    0.5000000000000000 # V14
  0.5000000000000000    0.3514000000000000    0.2500000000000000 # V15
  0.9080000000000000    0.5920000000000003    0.0000000000000000 # V16
  0.7028000000000001    0.7972000000000001    0.0000000000000000 # V17
  0.0000000000000000    0.8514000000000000    0.2500000000000000 # V18
  0.0920000000000002    0.4080000000000005    0.0000000000000000 # V19
  0.2972000000000001    0.2028000000000000    0.0000000000000000 # V20
  0.6486000000000002    0.5000000000000000    0.7500000000000000 # V21
  0.9080000000000006    0.4080000000000005    0.5000000000000000 # V22
  0.7028000000000001    0.2028000000000000    0.5000000000000000 # V23
  0.0000000000000000    0.1486000000000000    0.2500000000000000 # V24
  0.2170999999999999    0.0000000000000000    0.2500000000000000 # S1
  0.2829000000000002    0.5000000000000000    0.2500000000000000 # S2
  0.5000000000000000    0.7171000000000000    0.7500000000000000 # S3
  0.7829000000000003    0.0000000000000000    0.2500000000000000 # S4
  0.5000000000000000    0.2829000000000002    0.7500000000000000 # S5
  0.0000000000000000    0.7829000000000003    0.7500000000000000 # S6
  0.7171000000000000    0.5000000000000000    0.2500000000000000 # S7
  0.0000000000000000    0.2170999999999999    0.7500000000000000 # S8
