$cell vectors
1.0
  6.9012967526500741    0.0000000000000000    0.0000000000000000
  0.0000000000000000    6.9012967526500741    0.0000000000000000
  0.0000000000000000    0.0000000000000000   19.9753906007399067
 16 48
Direct
  0.0000000000000000    0.2500000000000000    0.0617999999999999 # U1
  0.0000000000000000    0.0000000000000000    0.4999999999999998 # U2
  0.5000000000000000    0.7500000000000007    0.5618000000000001 # U3
  0.5000000000000000    0.5000000000000000    0.0000000000000000 # U4
  0.0000000000000000    0.7500000000000007    0.9381999999999999 # U5
  0.5000000000000000    0.2500000000000000    0.4382000000000000 # U6
  0.0000000000000000    0.7500000000000007    0.3118000000000000 # U7
  0.2500000000000000    0.7500000000000007    0.7499999999999999 # U8
  0.5000000000000000    0.2500000000000000    0.8118000000000000 # U9
  0.7500000000000000    0.2500000000000000    0.2500000000000001 # U10
  0.0000000000000000    0.2500000000000000    0.6882000000000000 # U11
  0.5000000000000000    0.7500000000000000    0.1881999999999999 # U12
  0.0000000000000000    0.5000000000000000    0.4999999999999998 # U13
  0.5000000000000000    0.0000000000000000    0.0000000000000000 # U14
  0.2500000000000000    0.2500000000000000    0.2500000000000001 # U15
  0.7500000000000007    0.7500000000000007    0.7499999999999999 # U16
  0.0000000000000000    0.9476000000000006    0.4073000000000001 # O1
  0.0000000000000000    0.0496000000000004    0.2645000000000000 # O2
  0.0000000000000000    0.5100000000000001    0.0659999999999999 # O3
  0.5000000000000000    0.4476000000000006    0.9072999999999999 # O4
  0.5000000000000000    0.5496000000000004    0.7645000000000000 # O5
  0.5000000000000000    0.0100000000000002    0.5660000000000001 # O6
  0.0000000000000000    0.0524000000000002    0.5926999999999999 # O7
  0.0000000000000000    0.9504000000000002    0.7355000000000003 # O8
  0.0000000000000000    0.4900000000000006    0.9340000000000001 # O9
  0.5000000000000000    0.5524000000000002    0.0927000000000000 # O10
  0.5000000000000000    0.4504000000000004    0.2355000000000001 # O11
  0.5000000000000000    0.9900000000000005    0.4340000000000000 # O12
  0.3024000000000002    0.7500000000000007    0.6573000000000002 # O13
  0.2004000000000003    0.7500000000000007    0.5145000000000002 # O14
  0.7400000000000005    0.7500000000000007    0.3160000000000001 # O15
  0.8024000000000001    0.2500000000000000    0.1573000000000001 # O16
  0.7004000000000001    0.2500000000000000    0.0145000000000000 # O17
  0.2400000000000006    0.2500000000000000    0.8159999999999998 # O18
  0.6975999999999998    0.2500000000000000    0.3427000000000001 # O19
  0.7996000000000005    0.2500000000000000    0.4854999999999999 # O20
  0.2600000000000002    0.2500000000000000    0.6840000000000001 # O21
  0.1976000000000006    0.7500000000000007    0.8426999999999999 # O22
  0.2996000000000004    0.7500000000000007    0.9855000000000002 # O23
  0.7600000000000002    0.7500000000000000    0.1839999999999999 # O24
  0.0000000000000000    0.5524000000000002    0.4073000000000001 # O25
  0.0000000000000000    0.4504000000000004    0.2645000000000000 # O26
  0.0000000000000000    0.9900000000000005    0.0659999999999999 # O27
  0.5000000000000000    0.0524000000000002    0.9072999999999999 # O28
  0.5000000000000000    0.9504000000000002    0.7645000000000000 # O29
  0.5000000000000000    0.4900000000000006    0.5660000000000001 # O30
  0.0000000000000000    0.4476000000000006    0.5926999999999999 # O31
  0.0000000000000000    0.5496000000000004    0.7355000000000003 # O32
  0.0000000000000000    0.0100000000000002    0.9340000000000001 # O33
  0.5000000000000000    0.9476000000000006    0.0927000000000000 # O34
  0.5000000000000000    0.0496000000000004    0.2355000000000001 # O35
  0.5000000000000000    0.5100000000000001    0.4340000000000000 # O36
  0.1975999999999998    0.2500000000000000    0.1573000000000001 # O37
  0.2996000000000004    0.2500000000000000    0.0145000000000000 # O38
  0.7600000000000002    0.2500000000000000    0.8159999999999998 # O39
  0.6976000000000006    0.7500000000000007    0.6573000000000002 # O40
  0.7996000000000005    0.7500000000000007    0.5145000000000002 # O41
  0.2600000000000002    0.7500000000000007    0.3160000000000001 # O42
  0.8024000000000001    0.7500000000000007    0.8426999999999999 # O43
  0.7004000000000001    0.7500000000000007    0.9855000000000002 # O44
  0.2399999999999998    0.7500000000000000    0.1839999999999999 # O45
  0.3024000000000002    0.2500000000000000    0.3427000000000001 # O46
  0.2004000000000003    0.2500000000000000    0.4854999999999999 # O47
  0.7400000000000005    0.2500000000000000    0.6840000000000001 # O48
