$cell vectors
1.0
 13.6199935912210748    0.0000000000000000    0.0000000000000000
  0.0000000000000000   13.6199935912210748    0.0000000000000000
  0.0000000000000000    0.0000000000000000    9.0999957180698825
 32 16 128
Direct
  0.1638000000000000    0.9510000000000002    0.0089999999999998 # B1
  0.1386000000000001    0.1934999999999999    0.1203999999999999 # B2
  0.6638000000000003    0.4510000000000003    0.5090000000000002 # B3
  0.6386000000000001    0.6935000000000001    0.6203999999999998 # B4
  0.0489999999999999    0.6638000000000003    0.2589999999999998 # B5
  0.8065000000000002    0.6386000000000001    0.3703999999999999 # B6
  0.5490000000000002    0.1638000000000000    0.7589999999999997 # B7
  0.3065000000000000    0.1386000000000001    0.8703999999999998 # B8
  0.8362000000000004    0.0489999999999999    0.0089999999999998 # B9
  0.8613999999999999    0.8065000000000002    0.1203999999999999 # B10
  0.3362000000000002    0.5490000000000002    0.5090000000000002 # B11
  0.3614000000000001    0.3065000000000000    0.6203999999999998 # B12
  0.9510000000000002    0.3362000000000002    0.2589999999999998 # B13
  0.1935000000000003    0.3614000000000001    0.3703999999999999 # B14
  0.4510000000000003    0.8362000000000004    0.7589999999999997 # B15
  0.6935000000000001    0.8613999999999999    0.8703999999999998 # B16
  0.8362000000000004    0.9510000000000002    0.5090000000000002 # B17
  0.8613999999999999    0.1935000000000003    0.6203999999999998 # B18
  0.3362000000000002    0.4510000000000003    0.0089999999999998 # B19
  0.3614000000000001    0.6935000000000001    0.1203999999999999 # B20
  0.1638000000000000    0.0489999999999999    0.5090000000000002 # B21
  0.1386000000000001    0.8065000000000002    0.6203999999999998 # B22
  0.6638000000000003    0.5490000000000002    0.0089999999999998 # B23
  0.6386000000000001    0.3065000000000000    0.1203999999999999 # B24
  0.5490000000000002    0.8362000000000004    0.2589999999999998 # B25
  0.3065000000000000    0.8613999999999999    0.3703999999999999 # B26
  0.0489999999999999    0.3362000000000002    0.7589999999999997 # B27
  0.8065000000000002    0.3614000000000001    0.8703999999999998 # B28
  0.4510000000000003    0.1638000000000000    0.2589999999999998 # B29
  0.6935000000000001    0.1386000000000001    0.3703999999999999 # B30
  0.9510000000000002    0.6638000000000003    0.7589999999999997 # B31
  0.1935000000000003    0.6386000000000001    0.8703999999999998 # B32
  0.1998000000000001    0.0869000000000002    0.0000000000000000 # Be1
  0.6997999999999999    0.5869000000000001    0.5000000000000000 # Be2
  0.9131000000000002    0.6997999999999999    0.2500000000000001 # Be3
  0.4131000000000000    0.1998000000000001    0.7500000000000000 # Be4
  0.8002000000000005    0.9131000000000002    0.0000000000000000 # Be5
  0.3002000000000001    0.4131000000000000    0.5000000000000000 # Be6
  0.0869000000000002    0.3002000000000001    0.2500000000000001 # Be7
  0.5869000000000001    0.8002000000000005    0.7500000000000000 # Be8
  0.8002000000000005    0.0869000000000002    0.5000000000000000 # Be9
  0.3002000000000001    0.5869000000000001    0.0000000000000000 # Be10
  0.1998000000000001    0.9131000000000002    0.5000000000000000 # Be11
  0.6997999999999999    0.4131000000000000    0.0000000000000000 # Be12
  0.4131000000000000    0.8002000000000005    0.2500000000000001 # Be13
  0.9131000000000002    0.3002000000000001    0.7500000000000000 # Be14
  0.5869000000000001    0.1998000000000001    0.2500000000000001 # Be15
  0.0869000000000002    0.6997999999999999    0.7500000000000000 # Be16
  0.0955000000000000    0.9320000000000003    0.0598000000000001 # H1
  0.2193000000000003    0.8990000000000004   -0.0410000000000002 # H2
  0.2069000000000001    0.9970000000000002    0.0982000000000002 # H3
  0.1413000000000001    1.0083000000000004   -0.0840000000000001 # H4
  0.1054000000000002    0.1564000000000001    0.0252000000000001 # H5
  0.2122000000000002    0.1626000000000002    0.1404000000000002 # H6
  0.1450000000000002    0.2713999999999999    0.1014999999999999 # H7
  0.0899000000000000    0.1849999999999999    0.2261000000000000 # H8
  0.5955000000000001    0.4320000000000001    0.5598000000000001 # H9
  0.7193000000000002    0.3990000000000001    0.4589999999999997 # H10
  0.7069000000000000    0.4970000000000000    0.5982000000000001 # H11
  0.6413000000000003    0.5083000000000001    0.4159999999999999 # H12
  0.6054000000000000    0.6564000000000002    0.5252000000000000 # H13
  0.7121999999999999    0.6626000000000000    0.6404000000000002 # H14
  0.6450000000000001    0.7714000000000001    0.6014999999999998 # H15
  0.5899000000000003    0.6850000000000002    0.7261000000000000 # H16
  0.0680000000000002    0.5955000000000001    0.3098000000000001 # H17
  0.1010000000000001    0.7193000000000002    0.2089999999999997 # H18
  0.0030000000000002    0.7069000000000000    0.3482000000000002 # H19
 -0.0082999999999999    0.6413000000000003    0.1660000000000000 # H20
  0.8436000000000003    0.6054000000000000    0.2752000000000001 # H21
  0.8374000000000003    0.7121999999999999    0.3904000000000003 # H22
  0.7286000000000002    0.6450000000000001    0.3514999999999999 # H23
  0.8150000000000001    0.5899000000000003    0.4761000000000000 # H24
  0.5680000000000004    0.0955000000000000    0.8098000000000000 # H25
  0.6010000000000003    0.2193000000000003    0.7090000000000003 # H26
  0.5030000000000000    0.2069000000000001    0.8482000000000002 # H27
  0.4917000000000000    0.1413000000000001    0.6659999999999999 # H28
  0.3436000000000001    0.1054000000000002    0.7752000000000001 # H29
  0.3374000000000000    0.2122000000000002    0.8904000000000002 # H30
  0.2286000000000000    0.1450000000000002    0.8514999999999998 # H31
  0.3150000000000002    0.0899000000000000    0.9761000000000000 # H32
  0.9045000000000001    0.0680000000000002    0.0598000000000001 # H33
  0.7807000000000001    0.1010000000000001   -0.0410000000000002 # H34
  0.7931000000000002    0.0030000000000002    0.0982000000000002 # H35
  0.8587000000000002   -0.0082999999999999   -0.0840000000000001 # H36
  0.8946000000000003    0.8436000000000003    0.0252000000000001 # H37
  0.7878000000000002    0.8374000000000003    0.1404000000000002 # H38
  0.8550000000000001    0.7286000000000002    0.1014999999999999 # H39
  0.9101000000000002    0.8150000000000001    0.2261000000000000 # H40
  0.4045000000000002    0.5680000000000004    0.5598000000000001 # H41
  0.2806999999999999    0.6010000000000003    0.4589999999999997 # H42
  0.2931000000000000    0.5030000000000000    0.5982000000000001 # H43
  0.3587000000000001    0.4917000000000000    0.4159999999999999 # H44
  0.3946000000000001    0.3436000000000001    0.5252000000000000 # H45
  0.2878000000000000    0.3374000000000000    0.6404000000000002 # H46
  0.3550000000000000    0.2286000000000000    0.6014999999999998 # H47
  0.4101000000000002    0.3150000000000002    0.7261000000000000 # H48
  0.9320000000000003    0.4045000000000002    0.3098000000000001 # H49
  0.8990000000000004    0.2806999999999999    0.2089999999999997 # H50
  0.9970000000000002    0.2931000000000000    0.3482000000000002 # H51
  1.0083000000000004    0.3587000000000001    0.1660000000000000 # H52
  0.1564000000000001    0.3946000000000001    0.2752000000000001 # H53
  0.1626000000000002    0.2878000000000000    0.3904000000000003 # H54
  0.2714000000000003    0.3550000000000000    0.3514999999999999 # H55
  0.1849999999999999    0.4101000000000002    0.4761000000000000 # H56
  0.4320000000000001    0.9045000000000001    0.8098000000000000 # H57
  0.3990000000000001    0.7807000000000001    0.7090000000000003 # H58
  0.4970000000000000    0.7931000000000002    0.8482000000000002 # H59
  0.5083000000000001    0.8587000000000002    0.6659999999999999 # H60
  0.6564000000000002    0.8946000000000003    0.7752000000000001 # H61
  0.6626000000000000    0.7878000000000002    0.8904000000000002 # H62
  0.7714000000000001    0.8550000000000001    0.8514999999999998 # H63
  0.6850000000000002    0.9101000000000002    0.9761000000000000 # H64
  0.9045000000000001    0.9320000000000003    0.5598000000000001 # H65
  0.7807000000000001    0.8990000000000004    0.4589999999999997 # H66
  0.7931000000000002    0.9970000000000002    0.5982000000000001 # H67
  0.8587000000000002    1.0083000000000004    0.4159999999999999 # H68
  0.8946000000000003    0.1564000000000001    0.5252000000000000 # H69
  0.7878000000000002    0.1626000000000002    0.6404000000000002 # H70
  0.8550000000000001    0.2714000000000003    0.6014999999999998 # H71
  0.9101000000000002    0.1849999999999999    0.7261000000000000 # H72
  0.4045000000000002    0.4320000000000001    0.0598000000000001 # H73
  0.2806999999999999    0.3990000000000001   -0.0410000000000002 # H74
  0.2931000000000000    0.4970000000000000    0.0982000000000002 # H75
  0.3587000000000001    0.5083000000000001   -0.0840000000000001 # H76
  0.3946000000000001    0.6564000000000002    0.0252000000000001 # H77
  0.2878000000000000    0.6626000000000000    0.1404000000000002 # H78
  0.3550000000000000    0.7714000000000001    0.1014999999999999 # H79
  0.4101000000000002    0.6850000000000002    0.2261000000000000 # H80
  0.0955000000000000    0.0680000000000002    0.5598000000000001 # H81
  0.2192999999999999    0.1010000000000001    0.4589999999999997 # H82
  0.2069000000000001    0.0030000000000002    0.5982000000000001 # H83
  0.1413000000000001   -0.0082999999999999    0.4159999999999999 # H84
  0.1054000000000002    0.8436000000000003    0.5252000000000000 # H85
  0.2122000000000002    0.8374000000000003    0.6404000000000002 # H86
  0.1450000000000002    0.7286000000000002    0.6014999999999998 # H87
  0.0899000000000000    0.8150000000000001    0.7261000000000000 # H88
  0.5955000000000001    0.5680000000000004    0.0598000000000001 # H89
  0.7193000000000002    0.6010000000000003   -0.0410000000000002 # H90
  0.7069000000000000    0.5030000000000000    0.0982000000000002 # H91
  0.6413000000000003    0.4917000000000000   -0.0840000000000001 # H92
  0.6054000000000000    0.3436000000000001    0.0252000000000001 # H93
  0.7121999999999999    0.3374000000000000    0.1404000000000002 # H94
  0.6450000000000001    0.2286000000000000    0.1014999999999999 # H95
  0.5899000000000003    0.3150000000000002    0.2261000000000000 # H96
  0.5680000000000004    0.9045000000000001    0.3098000000000001 # H97
  0.6010000000000003    0.7807000000000001    0.2089999999999997 # H98
  0.5030000000000000    0.7931000000000002    0.3482000000000002 # H99
  0.4917000000000003    0.8587000000000002    0.1660000000000000 # H100
  0.3436000000000001    0.8946000000000003    0.2752000000000001 # H101
  0.3374000000000000    0.7878000000000002    0.3904000000000003 # H102
  0.2286000000000000    0.8550000000000001    0.3514999999999999 # H103
  0.3150000000000002    0.9101000000000002    0.4761000000000000 # H104
  0.0680000000000002    0.4045000000000002    0.8098000000000000 # H105
  0.1010000000000001    0.2806999999999999    0.7090000000000003 # H106
  0.0030000000000002    0.2931000000000000    0.8482000000000002 # H107
 -0.0082999999999999    0.3587000000000001    0.6659999999999999 # H108
  0.8436000000000003    0.3946000000000001    0.7752000000000001 # H109
  0.8374000000000003    0.2878000000000000    0.8904000000000002 # H110
  0.7286000000000002    0.3550000000000000    0.8514999999999998 # H111
  0.8150000000000001    0.4101000000000002    0.9761000000000000 # H112
  0.4320000000000001    0.0955000000000000    0.3098000000000001 # H113
  0.3990000000000001    0.2192999999999999    0.2089999999999997 # H114
  0.4970000000000000    0.2069000000000001    0.3482000000000002 # H115
  0.5083000000000001    0.1413000000000001    0.1660000000000000 # H116
  0.6564000000000002    0.1054000000000002    0.2752000000000001 # H117
  0.6626000000000000    0.2122000000000002    0.3904000000000003 # H118
  0.7714000000000001    0.1450000000000002    0.3514999999999999 # H119
  0.6850000000000002    0.0899000000000000    0.4761000000000000 # H120
  0.9320000000000003    0.5955000000000001    0.8098000000000000 # H121
  0.8990000000000004    0.7193000000000002    0.7090000000000003 # H122
  0.9970000000000002    0.7069000000000000    0.8482000000000002 # H123
  1.0083000000000004    0.6413000000000003    0.6659999999999999 # H124
  0.1564000000000001    0.6054000000000000    0.7752000000000001 # H125
  0.1626000000000002    0.7121999999999999    0.8904000000000002 # H126
  0.2714000000000003    0.6450000000000001    0.8514999999999998 # H127
  0.1849999999999999    0.5899000000000003    0.9761000000000000 # H128
