$cell vectors
1.0
  6.2609970539379711    0.0000000000000000    0.0000000000000000
  0.0000000000000000    6.2609970539379711    0.0000000000000000
  0.0000000000000000    0.0000000000000000    4.1009980703081945
 2 10 2
Direct
  0.0000000000000000    0.5000000000000000    0.6176000000000000 # V1
  0.5000000000000000    0.0000000000000000    0.3824000000000000 # V2
  0.0000000000000000    0.5000000000000000    0.2200000000000006 # O1
  0.5380000000000000    0.6829999999999997    0.2850000000000006 # O2
  0.5000000000000000    0.0000000000000000    0.7800000000000007 # O3
  0.9620000000000001    0.8170000000000004    0.7150000000000006 # O4
  0.8170000000000004    0.0380000000000000    0.2850000000000006 # O5
  0.4620000000000001    0.3170000000000003    0.2850000000000006 # O6
  0.1829999999999997    0.9620000000000001    0.2850000000000006 # O7
  0.6829999999999997    0.4620000000000001    0.7150000000000006 # O8
  0.3170000000000003    0.5380000000000000    0.7150000000000006 # O9
  0.0380000000000000    0.1829999999999997    0.7150000000000006 # O10
  0.0000000000000000    0.0000000000000000    0.5000000000000000 # S1
  0.5000000000000000    0.5000000000000000    0.5000000000000000 # S2
