$cell vectors
1.0
  6.2679970506441780    0.0000000000000000    0.0000000000000000
  0.0000000000000000    6.2679970506441780    0.0000000000000000
  0.0000000000000000    0.0000000000000000   14.7819930444515428
 6 18
Direct
  0.0000000000000000    0.0000000000000000    0.3755999999999999 # K1
  0.0000000000000000    0.5000000000000003    0.7500000000000001 # K2
  0.5000000000000003    0.5000000000000003    0.8755999999999996 # K3
  0.5000000000000003    0.0000000000000000    0.2499999999999999 # K4
  0.0000000000000000    0.0000000000000000    0.6243999999999997 # K5
  0.5000000000000003    0.5000000000000003    0.1243999999999999 # K6
  0.1943000000000003    0.0000000000000000    0.8574000000000001 # Ga1
  0.2932999999999998    0.0000000000000000    0.0282999999999998 # Ga2
  0.0000000000000000    0.5000000000000003    0.2499999999999999 # Ga3
  0.6942999999999998    0.5000000000000003    0.3573999999999999 # Ga4
  0.7933000000000002    0.5000000000000003    0.5283000000000001 # Ga5
  0.5000000000000003    0.0000000000000000    0.7500000000000001 # Ga6
  0.0000000000000000    0.8056999999999996    0.1425999999999999 # Ga7
  0.0000000000000000    0.7067000000000002    0.9716999999999999 # Ga8
  0.5000000000000003    0.3057000000000000    0.6425999999999998 # Ga9
  0.5000000000000003    0.2066999999999997    0.4716999999999996 # Ga10
  0.8057000000000004    0.0000000000000000    0.8574000000000001 # Ga11
  0.7067000000000002    0.0000000000000000    0.0282999999999998 # Ga12
  0.3057000000000000    0.5000000000000003    0.3573999999999999 # Ga13
  0.2066999999999997    0.5000000000000003    0.5283000000000001 # Ga14
  0.0000000000000000    0.1943000000000003    0.1425999999999999 # Ga15
  0.0000000000000000    0.2933000000000007    0.9716999999999999 # Ga16
  0.5000000000000003    0.6942999999999998    0.6425999999999998 # Ga17
  0.5000000000000003    0.7933000000000002    0.4716999999999996 # Ga18
