$cell vectors
1.0
 10.6199950028463928    0.0000000000000000    0.0000000000000000
  0.0000000000000000   10.6199950028463928    0.0000000000000000
  0.0000000000000000    0.0000000000000000    9.0089957608891833
 10 10 8
Direct
  0.3905000000000000    0.1907000000000001    0.6903000000000000 # Bi1
  0.4999999999999997    0.4999999999999997    0.3179999999999999 # Bi2
  0.8092999999999998    0.3905000000000000    0.6903000000000000 # Bi3
  0.6095000000000000    0.8092999999999998    0.6903000000000000 # Bi4
  0.1907000000000001    0.6095000000000000    0.6903000000000000 # Bi5
  0.1094999999999998    0.6906999999999998    0.1903000000000000 # Bi6
  0.0000000000000000    0.0000000000000000    0.8180000000000001 # Bi7
  0.8904999999999996    0.3093000000000001    0.1903000000000000 # Bi8
  0.3093000000000001    0.1094999999999998    0.1903000000000000 # Bi9
  0.6906999999999998    0.8904999999999996    0.1903000000000000 # Bi10
  0.6056999999999997    0.1884000000000000    0.3739999999999999 # Ba1
  0.4999999999999997    0.4999999999999997    0.7000999999999998 # Ba2
  0.8116000000000000    0.6056999999999997    0.3739999999999999 # Ba3
  0.3942999999999999    0.8116000000000000    0.3739999999999999 # Ba4
  0.1884000000000000    0.3942999999999999    0.3739999999999999 # Ba5
  0.8942999999999998    0.6883999999999998    0.8740000000000001 # Ba6
  0.0000000000000000    0.0000000000000000    0.2000999999999998 # Ba7
  0.1057000000000003    0.3116000000000002    0.8740000000000001 # Ba8
  0.3116000000000002    0.8942999999999998    0.8740000000000001 # Ba9
  0.6883999999999998    0.1057000000000003    0.8740000000000001 # Ba10
  0.1834000000000001    0.0720000000000001    0.5316000000000002 # In1
  0.9279999999999997    0.1834000000000001    0.5316000000000002 # In2
  0.8165999999999995    0.9279999999999997    0.5316000000000002 # In3
  0.0720000000000001    0.8165999999999995    0.5316000000000002 # In4
  0.3166000000000002    0.5719999999999998    0.0316000000000001 # In5
  0.6833999999999998    0.4280000000000002    0.0316000000000001 # In6
  0.4280000000000002    0.3165999999999997    0.0316000000000001 # In7
  0.5719999999999998    0.6833999999999998    0.0316000000000001 # In8
