$cell vectors
1.0
 11.1869947360492095    0.0000000000000000    0.0000000000000000
  0.0000000000000000   11.1869947360492095    0.0000000000000000
  0.0000000000000000    0.0000000000000000    6.1889970878169809
 8 8 16
Direct
  0.1169999999999998    0.1597000000000001    0.1700999999999996 # N1
  0.8829999999999998    0.8402999999999998    0.8298999999999994 # N2
  0.8402999999999998    0.6169999999999998    0.6700999999999996 # N3
  0.1597000000000001    0.3829999999999996    0.3298999999999995 # N4
  0.3829999999999996    0.3402999999999999    0.1700999999999996 # N5
  0.6169999999999998    0.6596999999999996    0.8298999999999994 # N6
  0.6596999999999996    0.8829999999999998    0.6700999999999996 # N7
  0.3402999999999999    0.1169999999999998    0.3298999999999995 # N8
  0.2048999999999999    0.0807000000000002    0.3086000000000003 # P1
  0.7950999999999997    0.9192999999999997    0.6913999999999997 # P2
  0.9192999999999997    0.7048999999999997    0.8085999999999993 # P3
  0.0807000000000002    0.2951000000000001    0.1913999999999997 # P4
  0.2951000000000001    0.4192999999999997    0.3086000000000003 # P5
  0.7048999999999997    0.5806999999999997    0.6913999999999997 # P6
  0.5806999999999997    0.7950999999999997    0.8085999999999993 # P7
  0.4192999999999997    0.2048999999999999    0.1913999999999997 # P8
  0.1412999999999999    0.0551000000000002    0.6358999999999998 # Br1
  0.1930000000000001   -0.0959999999999999    0.1657000000000001 # Br2
  0.8586999999999996    0.9448999999999994    0.3641000000000002 # Br3
  0.8069999999999997    1.0959999999999999    0.8342999999999999 # Br4
  0.9448999999999994    0.6412999999999999    1.1358999999999997 # Br5
  1.0959999999999999    0.6930000000000002    0.6657000000000001 # Br6
  0.0551000000000002    0.3587000000000000   -0.1358999999999997 # Br7
 -0.0959999999999999    0.3069999999999998    0.3342999999999998 # Br8
  0.3587000000000000    0.4448999999999998    0.6358999999999998 # Br9
  0.3069999999999998    0.5959999999999999    0.1657000000000001 # Br10
  0.6412999999999999    0.5550999999999997    0.3641000000000002 # Br11
  0.6930000000000002    0.4040000000000001    0.8342999999999999 # Br12
  0.5551000000000003    0.8586999999999996    1.1358999999999997 # Br13
  0.4040000000000001    0.8069999999999997    0.6657000000000001 # Br14
  0.4448999999999998    0.1412999999999999   -0.1358999999999997 # Br15
  0.5959999999999999    0.1930000000000001    0.3342999999999998 # Br16
