$cell vectors
1.0
 13.6959935554598999    0.0000000000000000    0.0000000000000000
  0.0000000000000000   13.6959935554598999    0.0000000000000000
  0.0000000000000000    0.0000000000000000    5.9809971856896675
 32 64
Direct
  0.1160000000000003    0.1229999999999999    0.4879999999999997 # Nb1
  0.1329999999999999    0.1240000000000000    0.0310000000000003 # Nb2
  0.6160000000000001    0.6230000000000001    0.9879999999999998 # Nb3
  0.6330000000000000    0.6240000000000002    0.5310000000000002 # Nb4
  0.8840000000000001    0.8770000000000001    0.5120000000000003 # Nb5
  0.8670000000000000    0.8760000000000000    0.9689999999999998 # Nb6
  0.3840000000000000    0.3769999999999999    0.0120000000000003 # Nb7
  0.3669999999999999    0.3760000000000001    0.4689999999999997 # Nb8
  0.6270000000000002    0.3660000000000002    0.7380000000000002 # Nb9
  0.6260000000000002    0.3830000000000002    0.2809999999999998 # Nb10
  0.1270000000000000    0.8660000000000000    0.2380000000000001 # Nb11
  0.1260000000000003    0.8830000000000000    0.7809999999999998 # Nb12
  0.3730000000000002    0.6340000000000002    0.2619999999999998 # Nb13
  0.3740000000000003    0.6170000000000001    0.7190000000000000 # Nb14
  0.8730000000000001    0.1340000000000001    0.7619999999999998 # Nb15
  0.8740000000000002    0.1170000000000000    0.2190000000000001 # Nb16
  0.8840000000000001    0.3769999999999999    0.4879999999999997 # Nb17
  0.8670000000000000    0.3759999999999998    0.0310000000000003 # Nb18
  0.3840000000000000    0.8770000000000001    0.9879999999999998 # Nb19
  0.3670000000000003    0.8760000000000000    0.5310000000000002 # Nb20
  0.1160000000000003    0.6230000000000001    0.5120000000000003 # Nb21
  0.1329999999999999    0.6240000000000002    0.9689999999999998 # Nb22
  0.6160000000000001    0.1229999999999999    0.0120000000000003 # Nb23
  0.6330000000000000    0.1240000000000000    0.4689999999999997 # Nb24
  0.3730000000000002    0.1340000000000001    0.7380000000000002 # Nb25
  0.3739999999999999    0.1170000000000000    0.2809999999999998 # Nb26
  0.8730000000000001    0.6340000000000002    0.2380000000000001 # Nb27
  0.8740000000000002    0.6170000000000001    0.7809999999999998 # Nb28
  0.6270000000000002    0.8660000000000000    0.2619999999999998 # Nb29
  0.6260000000000002    0.8830000000000000    0.7190000000000000 # Nb30
  0.1270000000000000    0.3660000000000002    0.7619999999999998 # Nb31
  0.1259999999999999    0.3830000000000002    0.2190000000000001 # Nb32
  0.9870000000000001    0.1329999999999999    0.9950000000000002 # O1
  0.9760000000000002    0.1259999999999999    0.4849999999999998 # O2
  0.2740000000000001    0.1190000000000002    0.9869999999999995 # O3
  0.2650000000000002    0.1259999999999999    0.5089999999999995 # O4
  0.4870000000000002    0.6330000000000000    0.4950000000000002 # O5
  0.4760000000000001    0.6260000000000002    0.9849999999999999 # O6
  0.7740000000000002    0.6190000000000001    0.4870000000000006 # O7
  0.7649999999999999    0.6260000000000002    0.0089999999999996 # O8
  0.0130000000000000    0.8670000000000000    0.0049999999999998 # O9
  0.0240000000000001    0.8740000000000002    0.5150000000000001 # O10
  0.7259999999999999    0.8810000000000003    0.0130000000000003 # O11
  0.7350000000000003    0.8740000000000002    0.4910000000000004 # O12
  0.5130000000000002    0.3669999999999999    0.5049999999999997 # O13
  0.5239999999999999    0.3739999999999999    0.0150000000000002 # O14
  0.2260000000000001    0.3810000000000001    0.5130000000000001 # O15
  0.2350000000000001    0.3740000000000003    0.9909999999999995 # O16
  0.6170000000000001    0.2370000000000003    0.2449999999999998 # O17
  0.6240000000000002    0.2260000000000001    0.7350000000000002 # O18
  0.6310000000000000    0.5239999999999999    0.2370000000000001 # O19
  0.6240000000000002    0.5150000000000001    0.7589999999999999 # O20
  0.1170000000000000    0.7370000000000001    0.7449999999999998 # O21
  0.1240000000000000    0.7259999999999999    0.2350000000000003 # O22
  0.1310000000000001    0.0240000000000001    0.7370000000000000 # O23
  0.1240000000000000    0.0149999999999998    0.2590000000000000 # O24
  0.3830000000000002    0.7630000000000002    0.7550000000000001 # O25
  0.3760000000000001    0.7740000000000002    0.2649999999999997 # O26
  0.3690000000000002    0.4760000000000001    0.7629999999999998 # O27
  0.3760000000000001    0.4849999999999999    0.2410000000000000 # O28
  0.8830000000000000    0.2629999999999999    0.2550000000000002 # O29
  0.8760000000000000    0.2740000000000001    0.7649999999999997 # O30
  0.8690000000000003    0.9760000000000002    0.2629999999999998 # O31
  0.8760000000000000    0.9850000000000002    0.7409999999999999 # O32
  0.0130000000000000    0.3670000000000003    0.9950000000000002 # O33
  0.0240000000000001    0.3739999999999999    0.4849999999999998 # O34
  0.7259999999999999    0.3810000000000001    0.9869999999999995 # O35
  0.7350000000000003    0.3739999999999999    0.5089999999999995 # O36
  0.5130000000000002    0.8670000000000000    0.4950000000000002 # O37
  0.5240000000000004    0.8740000000000002    0.9849999999999999 # O38
  0.2260000000000001    0.8810000000000003    0.4870000000000006 # O39
  0.2350000000000001    0.8740000000000002    0.0089999999999996 # O40
  0.9870000000000001    0.6330000000000000    0.0049999999999998 # O41
  0.9760000000000002    0.6260000000000002    0.5150000000000001 # O42
  0.2740000000000001    0.6190000000000001    0.0130000000000003 # O43
  0.2650000000000002    0.6260000000000002    0.4910000000000004 # O44
  0.4870000000000002    0.1329999999999999    0.5049999999999997 # O45
  0.4760000000000001    0.1259999999999999    0.0150000000000002 # O46
  0.7740000000000002    0.1190000000000002    0.5130000000000001 # O47
  0.7650000000000003    0.1259999999999999    0.9909999999999995 # O48
  0.3830000000000002    0.2629999999999999    0.2449999999999998 # O49
  0.3760000000000001    0.2740000000000001    0.7350000000000002 # O50
  0.3690000000000002    0.9760000000000002    0.2370000000000001 # O51
  0.3760000000000001    0.9850000000000002    0.7589999999999999 # O52
  0.8830000000000000    0.7630000000000002    0.7449999999999998 # O53
  0.8760000000000000    0.7740000000000002    0.2350000000000003 # O54
  0.8690000000000001    0.4760000000000001    0.7370000000000000 # O55
  0.8760000000000000    0.4849999999999999    0.2590000000000000 # O56
  0.6170000000000001    0.7370000000000001    0.7550000000000001 # O57
  0.6240000000000002    0.7259999999999999    0.2649999999999997 # O58
  0.6310000000000003    0.0240000000000001    0.7629999999999998 # O59
  0.6240000000000002    0.0149999999999998    0.2410000000000000 # O60
  0.1170000000000000    0.2370000000000003    0.2550000000000002 # O61
  0.1240000000000000    0.2260000000000001    0.7649999999999997 # O62
  0.1310000000000001    0.5239999999999999    0.2629999999999998 # O63
  0.1240000000000000    0.5150000000000001    0.7409999999999999 # O64
