$cell vectors
1.0
 11.4839945962983041    0.0000000000000000    0.0000000000000000
  0.0000000000000000   11.4839945962983041    0.0000000000000000
  0.0000000000000000    0.0000000000000000    5.6199973555552463
 12 48 24
Direct
  0.0000000000000000    0.0000000000000000    0.4999999999999996 # Cu1
  0.0815000000000000    0.2500000000000000    0.1249999999999997 # Cu2
  0.5000000000000000    0.5000000000000000    0.0000000000000000 # Cu3
  0.5814999999999999    0.7499999999999999    0.6250000000000002 # Cu4
  0.2500000000000000    0.9184999999999999    0.8750000000000003 # Cu5
  0.7499999999999999    0.4184999999999999    0.3749999999999999 # Cu6
  0.9184999999999999    0.7499999999999999    0.1249999999999997 # Cu7
  0.4184999999999999    0.2500000000000000    0.6250000000000002 # Cu8
  0.7499999999999999    0.0815000000000000    0.8750000000000003 # Cu9
  0.2500000000000000    0.5814999999999999    0.3749999999999999 # Cu10
  0.0000000000000000    0.5000000000000000    0.7499999999999999 # Cu11
  0.5000000000000000    0.0000000000000000    0.2500000000000003 # Cu12
  0.1590000000000001    0.0708000000000001    0.4981000000000001 # O1
  0.2527999999999999    0.2500000000000000    0.6250000000000002 # O2
  0.2500000000000000    0.0827000000000001    0.8750000000000003 # O3
  0.0745000000000001    0.1890000000000001    0.7956000000000001 # O4
  0.6589999999999997    0.5708000000000001    0.9980999999999997 # O5
  0.7527999999999999    0.7499999999999999    0.1249999999999997 # O6
  0.7499999999999999    0.5826999999999996    0.3749999999999999 # O7
  0.5745000000000001    0.6889999999999999    0.2955999999999995 # O8
  0.0708000000000001    0.8409999999999996    0.5019000000000000 # O9
  0.2500000000000000    0.7471999999999996    0.3749999999999999 # O10
  0.0827000000000001    0.7499999999999999    0.1249999999999997 # O11
  0.1890000000000001    0.9254999999999999    0.2044000000000001 # O12
  0.5707999999999996    0.3409999999999999    0.0019000000000004 # O13
  0.7499999999999999    0.2472000000000001    0.8750000000000003 # O14
  0.5826999999999996    0.2500000000000000    0.6250000000000002 # O15
  0.6889999999999999    0.4254999999999999    0.7043999999999997 # O16
  0.8409999999999996    0.9291999999999999    0.4981000000000001 # O17
  0.7471999999999996    0.7499999999999999    0.6250000000000002 # O18
  0.7499999999999999    0.9172999999999999    0.8750000000000003 # O19
  0.9254999999999999    0.8109999999999999    0.7956000000000001 # O20
  0.3409999999999999    0.4291999999999998    0.9980999999999997 # O21
  0.2471999999999996    0.2500000000000000    0.1250000000000006 # O22
  0.2500000000000000    0.4172999999999999    0.3749999999999999 # O23
  0.4254999999999999    0.3109999999999999    0.2955999999999995 # O24
  0.9291999999999999    0.1590000000000001    0.5019000000000000 # O25
  0.7499999999999999    0.2527999999999999    0.3749999999999999 # O26
  0.9172999999999999    0.2500000000000000    0.1249999999999997 # O27
  0.8109999999999999    0.0745000000000001    0.2044000000000001 # O28
  0.4291999999999998    0.6589999999999997    0.0019000000000004 # O29
  0.2500000000000000    0.7527999999999999    0.8750000000000003 # O30
  0.4172999999999999    0.7499999999999999    0.6250000000000002 # O31
  0.3109999999999999    0.5744999999999996    0.7043999999999997 # O32
  0.1590000000000001    0.4291999999999998    0.7519000000000001 # O33
  0.0745000000000001    0.3109999999999999    0.4544000000000004 # O34
  0.6590000000000000    0.9291999999999999    0.2518999999999997 # O35
  0.5745000000000001    0.8109999999999999    0.9543999999999998 # O36
  0.8409999999999996    0.5708000000000001    0.7519000000000001 # O37
  0.9254999999999999    0.6889999999999999    0.4544000000000004 # O38
  0.3409999999999999    0.0708000000000001    0.2518999999999997 # O39
  0.4254999999999999    0.1890000000000001    0.9543999999999998 # O40
  0.9291999999999999    0.3409999999999999    0.7481000000000003 # O41
  0.8109999999999999    0.4254999999999999    0.0456000000000002 # O42
  0.4291999999999998    0.8409999999999996    0.2480999999999998 # O43
  0.3109999999999999    0.9254999999999999    0.5455999999999998 # O44
  0.0708000000000001    0.6590000000000000    0.7481000000000003 # O45
  0.1890000000000001    0.5744999999999996    0.0456000000000002 # O46
  0.5707999999999996    0.1590000000000001    0.2480999999999998 # O47
  0.6889999999999999    0.0745000000000001    0.5455999999999998 # O48
  0.1838000000000001    0.1484000000000000    0.6991999999999996 # B1
  0.9989999999999999    0.2500000000000000    0.6250000000000002 # B2
  0.6838000000000000    0.6484000000000000    0.1992000000000001 # B3
  0.4990000000000000    0.7499999999999999    0.1249999999999997 # B4
  0.1484000000000000    0.8161999999999998    0.3008000000000005 # B5
  0.2500000000000000    0.0010000000000000    0.3749999999999999 # B6
  0.6484000000000000    0.3161999999999999    0.8008000000000000 # B7
  0.7499999999999999    0.5009999999999999    0.8750000000000003 # B8
  0.8161999999999998    0.8515999999999999    0.6991999999999996 # B9
  0.0010000000000000    0.7499999999999999    0.6250000000000002 # B10
  0.3161999999999999    0.3515999999999999    0.1992000000000001 # B11
  0.5009999999999999    0.2500000000000000    0.1249999999999997 # B12
  0.8515999999999999    0.1838000000000001    0.3008000000000005 # B13
  0.7499999999999999    0.9989999999999999    0.3749999999999999 # B14
  0.3515999999999999    0.6838000000000000    0.8008000000000000 # B15
  0.2500000000000000    0.4990000000000000    0.8750000000000003 # B16
  0.1838000000000001    0.3515999999999999    0.5507999999999998 # B17
  0.6838000000000000    0.8515999999999999    0.0508000000000002 # B18
  0.8161999999999998    0.6484000000000000    0.5507999999999998 # B19
  0.3161999999999999    0.1484000000000000    0.0508000000000002 # B20
  0.8515999999999999    0.3161999999999999    0.9492000000000000 # B21
  0.3515999999999999    0.8161999999999998    0.4492000000000003 # B22
  0.1484000000000000    0.6838000000000000    0.9492000000000000 # B23
  0.6484000000000000    0.1838000000000001    0.4492000000000003 # B24
