$cell vectors
1.0
  7.1771966228276014    0.0000000000000000    0.0000000000000000
  0.0000000000000000    7.1771966228276014    0.0000000000000000
  0.0000000000000000    0.0000000000000000    6.3288970219881859
 4 4 16
Direct
  0.0000000000000000    0.0000000000000000    0.0000000000000000 # Tb1
  0.4999999999999996    0.4999999999999996    0.4999999999999997 # Tb2
  0.0000000000000000    0.4999999999999996    0.2500000000000002 # Tb3
  0.4999999999999996    0.0000000000000000    0.7499999999999999 # Tb4
  0.0000000000000000    0.0000000000000000    0.4999999999999997 # V1
  0.4999999999999996    0.4999999999999996    0.0000000000000000 # V2
  0.4999999999999996    0.0000000000000000    0.2500000000000002 # V3
  0.0000000000000000    0.4999999999999996    0.7499999999999999 # V4
  0.0000000000000000    0.1850000000000000    0.3260000000000000 # O1
  0.5000000000000003    0.6850000000000002    0.8259999999999995 # O2
  0.8149999999999999    0.4999999999999996    0.5760000000000002 # O3
  0.3149999999999996    0.0000000000000000    0.0759999999999997 # O4
  0.0000000000000000    0.8149999999999999    0.3260000000000000 # O5
  0.4999999999999996    0.3150000000000004    0.8259999999999995 # O6
  0.1850000000000000    0.4999999999999996    0.5760000000000002 # O7
  0.6849999999999995    0.0000000000000000    0.0759999999999997 # O8
  0.1850000000000000    0.0000000000000000    0.6740000000000000 # O9
  0.6849999999999995    0.4999999999999996    0.1739999999999997 # O10
  0.8149999999999999    0.0000000000000000    0.6740000000000000 # O11
  0.3149999999999996    0.4999999999999996    0.1739999999999997 # O12
  0.0000000000000000    0.3150000000000004    0.9239999999999995 # O13
  0.4999999999999996    0.8149999999999999    0.4239999999999999 # O14
  0.0000000000000000    0.6850000000000002    0.9239999999999995 # O15
  0.4999999999999996    0.1850000000000000    0.4239999999999999 # O16
