$cell vectors
1.0
  9.5597955017147775    0.0000000000000000    0.0000000000000000
  0.0000000000000000    9.5597955017147775    0.0000000000000000
  0.0000000000000000    0.0000000000000000    7.1599966309209186
 2 8 2 8 34
Direct
  0.0000000000000000    0.0000000000000000    0.0000000000000000 # Ba1
  0.4999999999999997    0.4999999999999997    0.0000000000000000 # Ba2
  0.2638000000000000    0.9846999999999996    0.4069999999999999 # Cu1
  0.5152999999999999    0.7637999999999995    0.4069999999999999 # Cu2
  0.7361999999999999    0.0153000000000002    0.4069999999999999 # Cu3
  0.4847000000000000    0.2362000000000002    0.4069999999999999 # Cu4
  0.7637999999999995    0.5152999999999999    0.5930000000000001 # Cu5
  0.2362000000000002    0.4847000000000000    0.5930000000000001 # Cu6
  0.9846999999999996    0.2638000000000000    0.5930000000000001 # Cu7
  0.0153000000000002    0.7361999999999999    0.5930000000000001 # Cu8
  0.5000000000000001    0.9999999999999999    0.9769999999999996 # V1
  0.0000000000000000    0.4999999999999997    0.0230000000000002 # V2
  0.2792000000000001    0.1884999999999997    0.7390999999999996 # P1
  0.3114999999999999    0.7791999999999998    0.7390999999999996 # P2
  0.7207999999999998    0.8115000000000000    0.7390999999999996 # P3
  0.6884999999999999    0.2208000000000007    0.7390999999999996 # P4
  0.7791999999999998    0.3114999999999999    0.2609000000000003 # P5
  0.2208000000000001    0.6884999999999999    0.2609000000000003 # P6
  0.1885000000000003    0.2792000000000001    0.2609000000000003 # P7
  0.8114999999999994    0.7207999999999998    0.2609000000000003 # P8
  0.3475000000000003    0.1335999999999998    0.5535000000000002 # O1
  0.1214000000000001    0.1619999999999999    0.7293000000000001 # O2
  0.3334000000000000    0.1036000000000000    0.9057000000000004 # O3
  0.5000000000000001    0.9999999999999999    0.2035000000000003 # O4
  0.3162000000000000    0.3439999999999996    0.7532000000000001 # O5
  0.3663999999999998    0.8474999999999998    0.5535000000000002 # O6
  0.3380000000000002    0.6213999999999996    0.7293000000000001 # O7
  0.3964000000000002    0.8333999999999997    0.9057000000000004 # O8
  0.1560000000000000    0.8162000000000001    0.7532000000000001 # O9
  0.6525000000000002    0.8663999999999998    0.5535000000000002 # O10
  0.8785999999999997    0.8379999999999999    0.7293000000000001 # O11
  0.6666000000000002    0.8963999999999996    0.9057000000000004 # O12
  0.6837999999999999    0.6559999999999996    0.7532000000000001 # O13
  0.6335999999999999    0.1525000000000005    0.5535000000000002 # O14
  0.6620000000000000    0.3786000000000007    0.7293000000000001 # O15
  0.6036000000000002    0.1666000000000007    0.9057000000000004 # O16
  0.8439999999999998    0.1838000000000008    0.7532000000000001 # O17
  0.8474999999999998    0.3663999999999998    0.4464999999999998 # O18
  0.6213999999999996    0.3380000000000002    0.2706999999999998 # O19
  0.8333999999999997    0.3963999999999996    0.0943000000000003 # O20
  0.0000000000000000    0.5000000000000001    0.7964999999999995 # O21
  0.8161999999999996    0.1560000000000000    0.2467999999999998 # O22
  0.1525000000000000    0.6335999999999999    0.4464999999999998 # O23
  0.3786000000000001    0.6620000000000000    0.2706999999999998 # O24
  0.1666000000000001    0.6036000000000002    0.0943000000000003 # O25
  0.1838000000000002    0.8439999999999998    0.2467999999999998 # O26
  0.1335999999999998    0.3474999999999997    0.4464999999999998 # O27
  0.1619999999999999    0.1214000000000001    0.2706999999999998 # O28
  0.1036000000000000    0.3334000000000000    0.0943000000000003 # O29
  0.3439999999999996    0.3162000000000000    0.2467999999999998 # O30
  0.8663999999999998    0.6524999999999996    0.4464999999999998 # O31
  0.8379999999999999    0.8785999999999997    0.2706999999999998 # O32
  0.8963999999999996    0.6665999999999997    0.0943000000000003 # O33
  0.6559999999999996    0.6837999999999999    0.2467999999999998 # O34
