$cell vectors
1.0
  6.1399971108735256    0.0000000000000000    0.0000000000000000
  0.0000000000000000    6.1399971108735256    0.0000000000000000
  0.0000000000000000    0.0000000000000000   10.5719950254323969
 4 16 4 4
Direct
  0.4999999999999996    0.0000000000000000    0.5000000000000000 # Cl1
  1.0000000000000000    0.5000000000000004    1.0000000000000000 # Cl2
  0.0000000000000000    0.4999999999999996    0.5000000000000000 # Cl3
  0.5000000000000004    1.0000000000000000    1.0000000000000000 # Cl4
  0.6543999999999998    0.1544000000000003    0.3760999999999998 # F1
  0.6405999999999998    0.1406000000000002    0.6154999999999998 # F2
  1.1543999999999994    0.6543999999999998    0.8760999999999999 # F3
  1.1406000000000001    0.6405999999999998    1.1154999999999999 # F4
 -0.1544000000000003    0.6543999999999998    0.3760999999999998 # F5
 -0.1406000000000002    0.6405999999999998    0.6154999999999998 # F6
  0.3456000000000002    1.1543999999999994    0.8760999999999999 # F7
  0.3594000000000001    1.1406000000000001    1.1154999999999999 # F8
  0.3456000000000002   -0.1544000000000003    0.3760999999999998 # F9
  0.3594000000000001   -0.1406000000000002    0.6154999999999998 # F10
  0.8455999999999997    0.3456000000000002    0.8760999999999999 # F11
  0.8593999999999997    0.3594000000000001    1.1154999999999999 # F12
  0.1544000000000003    0.3456000000000002    0.3760999999999998 # F13
  0.1406000000000002    0.3594000000000001    0.6154999999999998 # F14
  0.6543999999999998    0.8455999999999997    0.8760999999999999 # F15
  0.6405999999999998    0.8593999999999997    1.1154999999999999 # F16
  0.0000000000000000    0.0000000000000000    0.3288000000000001 # N1
  0.4999999999999996    0.5000000000000004    0.8288000000000001 # N2
  0.0000000000000000    0.0000000000000000    0.8288000000000001 # N3
  0.4999999999999996    0.4999999999999996    0.3288000000000001 # N4
  0.0000000000000000    0.0000000000000000    0.2284999999999999 # O1
  0.4999999999999996    0.5000000000000004    0.7284999999999999 # O2
  0.0000000000000000    0.0000000000000000    0.7284999999999999 # O3
  0.4999999999999996    0.4999999999999996    0.2284999999999999 # O4
