$cell vectors
1.0
  8.4479960248631158    0.0000000000000000    0.0000000000000000
  0.0000000000000000    8.4479960248631158    0.0000000000000000
  0.0000000000000000    0.0000000000000000   14.9119929832811131
 12 4 20
Direct
  0.9942000000000004    0.8074000000000005    0.8029999999999998 # Tl1
  0.1212000000000002    0.3198000000000004    0.8785999999999998 # Tl2
  0.6216000000000004    0.1804000000000001    0.8210999999999999 # Tl3
  0.1926000000000000    0.9942000000000004    0.0529999999999999 # Tl4
  0.6802000000000004    0.1212000000000002    0.1285999999999999 # Tl5
  0.8196000000000006    0.6216000000000004    0.0710999999999999 # Tl6
  0.0058000000000003    0.1926000000000000    0.3030000000000000 # Tl7
  0.8788000000000005    0.6802000000000004    0.3786000000000000 # Tl8
  0.3784000000000002    0.8196000000000006    0.3211000000000001 # Tl9
  0.8074000000000005    0.0058000000000003    0.5530000000000002 # Tl10
  0.3198000000000004    0.8788000000000005    0.6286000000000002 # Tl11
  0.1804000000000001    0.3784000000000002    0.5711000000000002 # Tl12
  0.4940000000000005    0.6936000000000004    0.8963000000000001 # Pb1
  0.3064000000000002    0.4939999999999998    0.1463000000000001 # Pb2
  0.5060000000000001    0.3064000000000002    0.3963000000000002 # Pb3
  0.6936000000000004    0.5060000000000001    0.6463000000000000 # Pb4
  0.3370000000000002    0.1570000000000004    0.2310000000000001 # Cl1
  0.6870000000000003    0.0080000000000001    0.3539999999999999 # Cl2
  0.0259999999999998    0.8390000000000002    0.2100000000000000 # Cl3
  0.5280000000000005    0.6500000000000007    0.5079999999999998 # Cl4
  0.4899999999999998    0.8060000000000006    0.1079999999999999 # Cl5
  0.8430000000000003    0.3370000000000002    0.4809999999999998 # Cl6
  0.9920000000000004    0.6870000000000003    0.6039999999999999 # Cl7
  0.1610000000000004    0.0259999999999998    0.4600000000000000 # Cl8
  0.3500000000000000    0.5280000000000005    0.7580000000000000 # Cl9
  0.1940000000000000    0.4900000000000005    0.3580000000000001 # Cl10
  0.6630000000000005    0.8430000000000003    0.7310000000000000 # Cl11
  0.3130000000000004    0.9920000000000004    0.8540000000000002 # Cl12
  0.9740000000000003    0.1610000000000004    0.7099999999999999 # Cl13
  0.4720000000000001    0.3500000000000000    0.0080000000000000 # Cl14
  0.5100000000000002    0.1940000000000000    0.6080000000000001 # Cl15
  0.1570000000000004    0.6630000000000005    0.9809999999999997 # Cl16
  0.0080000000000001    0.3129999999999998    0.1040000000000001 # Cl17
  0.8390000000000002    0.9740000000000009    0.9599999999999999 # Cl18
  0.6500000000000007    0.4720000000000001    0.2580000000000001 # Cl19
  0.8060000000000006    0.5100000000000002    0.8579999999999999 # Cl20
