$cell vectors
1.0
  5.7409972986196927    0.0000000000000000    0.0000000000000000
  0.0000000000000000    5.7409972986196927    0.0000000000000000
  0.0000000000000000    0.0000000000000000   13.1209938260214241
 4 4 16 16
Direct
  0.0000000000000000    0.2500000000000000    0.1250000000000001 # Tc1
  0.5000000000000000    0.7500000000000000    0.6249999999999998 # Tc2
  0.0000000000000000    0.7500000000000000    0.8749999999999999 # Tc3
  0.5000000000000000    0.2500000000000000    0.3749999999999999 # Tc4
  0.0000000000000000    0.2500000000000000    0.6249999999999998 # N1
  0.5000000000000000    0.7500000000000000    0.1250000000000001 # N2
  0.0000000000000000    0.7500000000000000    0.3749999999999999 # N3
  0.5000000000000000    0.2500000000000000    0.8749999999999999 # N4
  0.1107000000000002    0.4676000000000003    0.1997999999999999 # O1
  0.6107000000000002    0.9676000000000003    0.6998000000000000 # O2
 -0.1107000000000002    0.5324000000000007    0.8001999999999998 # O3
  0.3892999999999999    0.0323999999999996    0.3002000000000002 # O4
  0.2823999999999997    0.3607000000000002    0.4498000000000001 # O5
 -0.2175999999999995    0.8607000000000002    0.9497999999999998 # O6
  0.7176000000000005    0.6392999999999999    0.5502000000000000 # O7
  0.2176000000000004    0.1392999999999998    0.0501999999999999 # O8
 -0.1107000000000002    0.0323999999999996    0.1997999999999999 # O9
  0.3892999999999999    0.5323999999999997    0.6998000000000000 # O10
  0.1107000000000002    0.9676000000000003    0.8001999999999998 # O11
  0.6107000000000002    0.4676000000000003    0.3002000000000002 # O12
  0.7176000000000005    0.1392999999999998    0.4498000000000001 # O13
  0.2176000000000004    0.6392999999999999    0.9497999999999998 # O14
  0.2823999999999997    0.8607000000000002    0.5502000000000000 # O15
 -0.2176000000000004    0.3607000000000002    0.0501999999999999 # O16
  0.0970000000000005    0.1889999999999998    0.5929999999999997 # H1
  0.5969999999999995    0.6889999999999998    0.0930000000000001 # H2
 -0.0969999999999995    0.8110000000000004    0.4069999999999999 # H3
  0.4030000000000005    0.3110000000000002    0.9069999999999999 # H4
  0.5610000000000002    0.3470000000000005    0.8430000000000000 # H5
  0.0610000000000002    0.8470000000000005    0.3429999999999999 # H6
  0.4389999999999998    0.6529999999999997    0.1570000000000001 # H7
 -0.0610000000000002    0.1530000000000005    0.6569999999999998 # H8
 -0.0969999999999995    0.3110000000000002    0.5929999999999997 # H9
  0.4030000000000005    0.8110000000000004    0.0930000000000001 # H10
  0.0970000000000005    0.6889999999999998    0.4069999999999999 # H11
  0.5970000000000005    0.1889999999999998    0.9069999999999999 # H12
  0.4389999999999998    0.1530000000000005    0.8430000000000000 # H13
 -0.0610000000000002    0.6529999999999997    0.3429999999999999 # H14
  0.5610000000000002    0.8469999999999995    0.1570000000000001 # H15
  0.0610000000000002    0.3470000000000005    0.6569999999999998 # H16
