$cell vectors
1.0
 14.9189929799873191    0.0000000000000000    0.0000000000000000
  0.0000000000000000   14.9189929799873191    0.0000000000000000
  0.0000000000000000    0.0000000000000000    7.6089964196476654
 16 16 80
Direct
  0.2166000000000000    0.0555000000000001    0.0000000000000000 # Ba1
  0.0684999999999999    0.2494000000000002    0.5056000000000000 # Ba2
  0.7166000000000000    0.5555000000000001    0.4999999999999996 # Ba3
  0.5684999999999998    0.7494000000000003    0.0055999999999998 # Ba4
  0.9445000000000000    0.2166000000000000    0.0000000000000000 # Ba5
  0.7505999999999997    0.0684999999999999    0.5056000000000000 # Ba6
  0.4445000000000000    0.7166000000000000    0.4999999999999996 # Ba7
  0.2506000000000002    0.5684999999999998    0.0055999999999998 # Ba8
  0.7834000000000001    0.9445000000000000    0.0000000000000000 # Ba9
  0.9314999999999998    0.7505999999999997    0.5056000000000000 # Ba10
  0.2834000000000000    0.4445000000000000    0.4999999999999996 # Ba11
  0.4315000000000002    0.2505999999999998    0.0055999999999998 # Ba12
  0.0555000000000001    0.7834000000000001    0.0000000000000000 # Ba13
  0.2494000000000002    0.9314999999999998    0.5056000000000000 # Ba14
  0.5555000000000001    0.2834000000000000    0.4999999999999996 # Ba15
  0.7494000000000003    0.4315000000000002    0.0055999999999998 # Ba16
  0.0000000000000000    0.0000000000000000    0.2730000000000001 # Fe1
  0.0000000000000000    0.0000000000000000    0.7296999999999997 # Fe2
  0.0000000000000000    0.5000000000000000    0.0162999999999999 # Fe3
  0.1828000000000001    0.3333000000000002    0.9849999999999997 # Fe4
  0.5000000000000000    0.5000000000000000    0.7729999999999997 # Fe5
  0.5000000000000000    0.5000000000000000    0.2297000000000002 # Fe6
  0.5000000000000000    0.0000000000000000    0.5163000000000002 # Fe7
  0.6828000000000003    0.8333000000000002    0.4850000000000000 # Fe8
  0.5000000000000000    0.0000000000000000    0.0162999999999999 # Fe9
  0.6667000000000000    0.1827999999999997    0.9849999999999997 # Fe10
  0.0000000000000000    0.5000000000000000    0.5163000000000002 # Fe11
  0.1667000000000002    0.6828000000000003    0.4850000000000000 # Fe12
  0.8172000000000000    0.6667000000000000    0.9849999999999997 # Fe13
  0.3172000000000000    0.1667000000000002    0.4850000000000000 # Fe14
  0.3333000000000002    0.8172000000000000    0.9849999999999997 # Fe15
  0.8333000000000002    0.3172000000000000    0.4850000000000000 # Fe16
  0.0000000000000000    0.0000000000000000    0.9849999999999997 # F1
  0.0000000000000000    0.0000000000000000    0.5004999999999996 # F2
  0.0514000000000000    0.1192000000000001    0.2684999999999998 # F3
  0.0500000000000001    0.0965000000000002    0.7779999999999999 # F4
  0.0000000000000000    0.5000000000000000    0.2490000000000000 # F5
  0.1159000000000001    0.4373000000000001    0.0236000000000000 # F6
  0.1091000000000001    0.4312999999999999    0.5230000000000002 # F7
  0.2644000000000001    0.3796999999999999    0.1703999999999997 # F8
  0.2485000000000002    0.4058000000000002    0.8169999999999996 # F9
  0.1053999999999998    0.2968000000000000    0.1603999999999997 # F10
  0.1003000000000000    0.2696000000000002    0.8619999999999999 # F11
  0.2479999999999999    0.2298000000000001    0.0280000000000002 # F12
  0.5000000000000000    0.5000000000000000    0.4850000000000000 # F13
  0.5000000000000000    0.5000000000000000    0.0005000000000001 # F14
  0.5514000000000000    0.6192000000000001    0.7684999999999993 # F15
  0.5500000000000002    0.5965000000000003    0.2779999999999997 # F16
  0.5000000000000000    0.0000000000000000    0.7489999999999996 # F17
  0.6159000000000001    0.9373000000000001    0.5235999999999996 # F18
  0.6090999999999998    0.9313000000000000    0.0229999999999999 # F19
  0.7644000000000001    0.8796999999999999    0.6704000000000001 # F20
  0.7484999999999999    0.9057999999999998    0.3170000000000001 # F21
  0.6053999999999998    0.7968000000000001    0.6603999999999999 # F22
  0.6003000000000001    0.7696000000000002    0.3619999999999996 # F23
  0.7479999999999999    0.7298000000000000    0.5279999999999998 # F24
  0.8807999999999999    0.0514000000000000    0.2684999999999998 # F25
  0.9034999999999999    0.0500000000000001    0.7779999999999999 # F26
  0.5000000000000000    0.0000000000000000    0.2490000000000000 # F27
  0.5627000000000000    0.1159000000000001    0.0236000000000000 # F28
  0.5686999999999998    0.1091000000000001    0.5230000000000002 # F29
  0.6203000000000001    0.2644000000000001    0.1703999999999997 # F30
  0.5942000000000003    0.2485000000000002    0.8169999999999996 # F31
  0.7031999999999999    0.1053999999999998    0.1603999999999997 # F32
  0.7303999999999999    0.1002999999999997    0.8619999999999999 # F33
  0.7702000000000001    0.2479999999999999    0.0280000000000002 # F34
  0.3808000000000000    0.5514000000000000    0.7684999999999993 # F35
  0.4035000000000002    0.5500000000000002    0.2779999999999997 # F36
  0.0000000000000000    0.5000000000000000    0.7489999999999996 # F37
  0.0626999999999999    0.6159000000000001    0.5235999999999996 # F38
  0.0687000000000002    0.6090999999999998    0.0229999999999999 # F39
  0.1203000000000001    0.7644000000000001    0.6704000000000001 # F40
  0.0942000000000002    0.7484999999999999    0.3170000000000001 # F41
  0.2032000000000000    0.6053999999999998    0.6603999999999999 # F42
  0.2304000000000002    0.6003000000000001    0.3619999999999996 # F43
  0.2702000000000000    0.7479999999999999    0.5279999999999998 # F44
  0.9486000000000000    0.8807999999999999    0.2684999999999998 # F45
  0.9500000000000000    0.9034999999999999    0.7779999999999999 # F46
  0.8841000000000001    0.5627000000000000    0.0236000000000000 # F47
  0.8909000000000000    0.5686999999999998    0.5230000000000002 # F48
  0.7356000000000000    0.6203000000000001    0.1703999999999997 # F49
  0.7514999999999999    0.5942000000000003    0.8169999999999996 # F50
  0.8946000000000000    0.7031999999999999    0.1603999999999997 # F51
  0.8996999999999999    0.7303999999999999    0.8619999999999999 # F52
  0.7520000000000002    0.7702000000000001    0.0280000000000002 # F53
  0.4486000000000001    0.3808000000000000    0.7684999999999993 # F54
  0.4500000000000000    0.4034999999999998    0.2779999999999997 # F55
  0.3840999999999999    0.0626999999999999    0.5235999999999996 # F56
  0.3908999999999999    0.0687000000000002    0.0229999999999999 # F57
  0.2356000000000000    0.1203000000000001    0.6704000000000001 # F58
  0.2514999999999999    0.0942000000000002    0.3170000000000001 # F59
  0.3946000000000002    0.2032000000000000    0.6603999999999999 # F60
  0.3997000000000000    0.2303999999999999    0.3619999999999996 # F61
  0.2520000000000001    0.2702000000000000    0.5279999999999998 # F62
  0.1192000000000001    0.9486000000000000    0.2684999999999998 # F63
  0.0965000000000002    0.9500000000000000    0.7779999999999999 # F64
  0.4373000000000001    0.8841000000000001    0.0236000000000000 # F65
  0.4313000000000003    0.8909000000000000    0.5230000000000002 # F66
  0.3796999999999999    0.7356000000000000    0.1703999999999997 # F67
  0.4058000000000002    0.7514999999999999    0.8169999999999996 # F68
  0.2968000000000000    0.8946000000000000    0.1603999999999997 # F69
  0.2696000000000002    0.8996999999999999    0.8619999999999999 # F70
  0.2298000000000001    0.7520000000000002    0.0280000000000002 # F71
  0.6192000000000001    0.4486000000000001    0.7684999999999993 # F72
  0.5965000000000003    0.4500000000000000    0.2779999999999997 # F73
  0.9373000000000001    0.3840999999999999    0.5235999999999996 # F74
  0.9313000000000000    0.3908999999999999    0.0229999999999999 # F75
  0.8796999999999999    0.2356000000000000    0.6704000000000001 # F76
  0.9057999999999998    0.2514999999999999    0.3170000000000001 # F77
  0.7968000000000001    0.3946000000000002    0.6603999999999999 # F78
  0.7696000000000002    0.3997000000000000    0.3619999999999996 # F79
  0.7298000000000000    0.2520000000000001    0.5279999999999998 # F80
