$cell vectors
1.0
  4.6862977949000992    0.0000000000000000    0.0000000000000000
  0.0000000000000000    4.6862977949000992    0.0000000000000000
  0.0000000000000000    0.0000000000000000    9.1909956752505835
 4 2 12
Direct
  0.0000000000000000    0.0000000000000000    0.3376999999999997 # Li1
  0.4999999999999993    0.5000000000000004    0.8377000000000001 # Li2
  0.4999999999999993    0.4999999999999993    0.1623000000000001 # Li3
  0.0000000000000000    0.0000000000000000    0.6623000000000000 # Li4
  0.0000000000000000    0.0000000000000000    0.0000000000000000 # Mo1
  0.4999999999999993    0.4999999999999993    0.4999999999999998 # Mo2
  0.2929999999999998    0.3159999999999998    0.3424000000000000 # F1
  0.2906999999999996    0.2906999999999996    0.0000000000000000 # F2
  0.1839999999999996   -0.2069999999999995   -0.1575999999999999 # F3
  0.2092999999999998    0.7907000000000002    0.4999999999999998 # F4
  0.7070000000000000    0.6840000000000002    0.3424000000000000 # F5
 -0.2906999999999996   -0.2906999999999996    0.0000000000000000 # F6
 -0.1839999999999996    0.2069999999999995   -0.1575999999999999 # F7
  0.7907000000000002    0.2092999999999998    0.4999999999999998 # F8
 -0.2069999999999995    0.1839999999999996    0.1575999999999999 # F9
  0.2069999999999995   -0.1839999999999996    0.1575999999999999 # F10
  0.3159999999999998    0.2929999999999998    0.6575999999999996 # F11
  0.6840000000000002    0.7070000000000000    0.6575999999999996 # F12
