$cell vectors
1.0
 12.4475941428842525    0.0000000000000000    0.0000000000000000
  0.0000000000000000   12.4475941428842525    0.0000000000000000
  0.0000000000000000    0.0000000000000000   12.9276939169771463
 20 20 80
Direct
  0.0000000000000000    0.0000000000000000    0.2500000000000001 # Cs1
  0.3499000000000000    0.8282000000000002    0.6815999999999999 # Cs2
  0.4999999999999998    0.4999999999999998    0.7499999999999999 # Cs3
  0.8498999999999999    0.3282000000000000    0.1816000000000001 # Cs4
  0.0000000000000000    0.0000000000000000    0.7499999999999999 # Cs5
  0.8281999999999998    0.6501000000000000    0.3184000000000001 # Cs6
  0.4999999999999998    0.4999999999999998    0.2500000000000001 # Cs7
  0.3282000000000000    0.1501000000000002    0.8183999999999999 # Cs8
  0.6501000000000000    0.1718000000000003    0.6815999999999999 # Cs9
  0.1501000000000002    0.6718000000000001    0.1816000000000001 # Cs10
  0.1718000000000003    0.3499000000000000    0.3184000000000001 # Cs11
  0.6718000000000001    0.8498999999999999    0.8183999999999999 # Cs12
  0.8281999999999998    0.3499000000000000    0.8183999999999999 # Cs13
  0.3282000000000000    0.8498999999999999    0.3184000000000001 # Cs14
  0.1717999999999998    0.6501000000000000    0.8183999999999999 # Cs15
  0.6717999999999996    0.1500999999999998    0.3184000000000001 # Cs16
  0.6501000000000000    0.8281999999999998    0.1816000000000001 # Cs17
  0.1500999999999998    0.3282000000000000    0.6815999999999999 # Cs18
  0.3499000000000000    0.1717999999999998    0.1816000000000001 # Cs19
  0.8498999999999999    0.6718000000000001    0.6815999999999999 # Cs20
  0.4999999999999998    0.0000000000000000    0.0000000000000000 # Co1
  0.7917999999999996    0.0725000000000001    0.9832999999999998 # Co2
  0.0000000000000000    0.4999999999999998    0.4999999999999998 # Co3
  0.2917999999999998    0.5724999999999999    0.4832999999999996 # Co4
  0.0000000000000000    0.4999999999999998    0.9999999999999997 # Co5
  0.0725000000000001    0.2082000000000001    0.0166999999999998 # Co6
  0.5000000000000002    0.0000000000000000    0.4999999999999998 # Co7
  0.5724999999999999    0.7081999999999999    0.5167000000000000 # Co8
  0.2082000000000001    0.9275000000000001    0.9832999999999998 # Co9
  0.7081999999999999    0.4275000000000002    0.4832999999999996 # Co10
  0.9275000000000001    0.7918000000000001    0.0166999999999998 # Co11
  0.4275000000000002    0.2917999999999998    0.5167000000000000 # Co12
  0.0725000000000001    0.7918000000000001    0.5167000000000000 # Co13
  0.5724999999999999    0.2917999999999998    0.0167000000000002 # Co14
  0.9275000000000001    0.2082000000000001    0.5167000000000000 # Co15
  0.4275000000000002    0.7081999999999999    0.0167000000000002 # Co16
  0.2082000000000001    0.0725000000000001    0.4833000000000000 # Co17
  0.7081999999999999    0.5724999999999999    0.9832999999999998 # Co18
  0.7918000000000001    0.9275000000000001    0.4832999999999996 # Co19
  0.2917999999999998    0.4275000000000002    0.9832999999999998 # Co20
  0.3421000000000001    0.9998999999999999    0.9946999999999997 # F1
  0.1397000000000000    0.0661000000000003    0.9842999999999998 # F2
  0.0754999999999999    0.2071999999999999    0.1408999999999999 # F3
  0.9192999999999999    0.7909000000000002    0.8615999999999997 # F4
  0.2196000000000001    0.7195999999999999    0.4999999999999998 # F5
  0.0000000000000000    0.4999999999999998    0.1418999999999999 # F6
  0.8421000000000000    0.4999000000000000    0.4947000000000000 # F7
  0.6396999999999998    0.5661000000000000    0.4842999999999999 # F8
  0.5755000000000001    0.7071999999999999    0.6409000000000001 # F9
  0.4193000000000000    0.2909000000000003    0.3615999999999999 # F10
  0.7195999999999999    0.2196000000000001    0.0000000000000000 # F11
  0.5000000000000002    0.0000000000000000    0.6419000000000001 # F12
  0.9998999999999999    0.6578999999999999    0.0052999999999998 # F13
  0.0661000000000003    0.8603000000000001    0.0156999999999999 # F14
  0.2071999999999999    0.9244999999999999    0.8591000000000000 # F15
  0.7909000000000002    0.0807000000000002    0.1383999999999999 # F16
  0.7195999999999999    0.7804000000000000    0.4999999999999998 # F17
  0.4999999999999998    0.0000000000000000    0.8580999999999998 # F18
  0.4999000000000000    0.1579000000000001    0.5052999999999996 # F19
  0.5661000000000000    0.3603000000000003    0.5156999999999997 # F20
  0.7071999999999999    0.4245000000000000    0.3590999999999999 # F21
  0.2909000000000003    0.5807000000000000    0.6383999999999997 # F22
  0.2196000000000001    0.2804000000000001    0.0000000000000000 # F23
  0.0000000000000000    0.4999999999999998    0.3580999999999999 # F24
  0.6578999999999999    0.0001000000000003    0.9946999999999997 # F25
  0.8602999999999997    0.9339000000000000    0.9842999999999998 # F26
  0.9244999999999999    0.7927999999999998    0.1408999999999999 # F27
  0.0807000000000002    0.2091000000000000    0.8615999999999997 # F28
  0.7804000000000000    0.2804000000000001    0.4999999999999998 # F29
  0.1579000000000001    0.5001000000000001    0.4947000000000000 # F30
  0.3603000000000000    0.4339000000000000    0.4842999999999999 # F31
  0.4245000000000000    0.2928000000000000    0.6408999999999997 # F32
  0.5807000000000000    0.7090999999999998    0.3616000000000003 # F33
  0.2804000000000001    0.7804000000000000    0.0000000000000000 # F34
  0.0000999999999999    0.3421000000000001    0.0052999999999998 # F35
  0.9339000000000000    0.1397000000000000    0.0156999999999999 # F36
  0.7927999999999998    0.0755000000000003    0.8591000000000000 # F37
  0.2091000000000000    0.9192999999999999    0.1383999999999999 # F38
  0.2804000000000001    0.2196000000000001    0.4999999999999998 # F39
  0.5001000000000001    0.8421000000000000    0.5053000000000001 # F40
  0.4339000000000000    0.6396999999999998    0.5157000000000002 # F41
  0.2928000000000000    0.5755000000000001    0.3590999999999999 # F42
  0.7090999999999998    0.4193000000000000    0.6383999999999997 # F43
  0.7804000000000000    0.7195999999999999    0.0000000000000000 # F44
  0.9998999999999999    0.3421000000000001    0.5053000000000001 # F45
  0.0661000000000003    0.1397000000000000    0.5157000000000002 # F46
  0.2071999999999999    0.0754999999999999    0.3590999999999999 # F47
  0.7909000000000002    0.9192999999999999    0.6383999999999997 # F48
  0.5000000000000002    0.0000000000000000    0.3580999999999999 # F49
  0.4999000000000000    0.8421000000000000    0.0052999999999998 # F50
  0.5661000000000000    0.6396999999999998    0.0156999999999999 # F51
  0.7071999999999999    0.5755000000000001    0.8591000000000000 # F52
  0.2909000000000003    0.4193000000000000    0.1383999999999999 # F53
  0.0000000000000000    0.4999999999999998    0.8580999999999998 # F54
  0.0000999999999999    0.6578999999999999    0.5053000000000001 # F55
  0.9339000000000000    0.8603000000000001    0.5157000000000002 # F56
  0.7927999999999998    0.9244999999999999    0.3590999999999999 # F57
  0.2091000000000000    0.0807000000000002    0.6383999999999997 # F58
  0.5001000000000001    0.1579000000000001    0.0052999999999998 # F59
  0.4339000000000000    0.3603000000000000    0.0156999999999999 # F60
  0.2928000000000000    0.4245000000000000    0.8591000000000000 # F61
  0.7090999999999998    0.5807000000000000    0.1383999999999999 # F62
  0.6578999999999999    0.9998999999999999    0.4947000000000000 # F63
  0.8603000000000001    0.0661000000000003    0.4842999999999999 # F64
  0.9244999999999999    0.2071999999999999    0.6409000000000001 # F65
  0.0807000000000002    0.7909000000000002    0.3616000000000003 # F66
  0.0000000000000000    0.4999999999999998    0.6419000000000001 # F67
  0.1579000000000001    0.4999000000000000    0.9947000000000003 # F68
  0.3603000000000000    0.5661000000000000    0.9843000000000003 # F69
  0.4245000000000000    0.7071999999999999    0.1408999999999999 # F70
  0.5807000000000000    0.2909000000000003    0.8615999999999997 # F71
  0.4999999999999998    0.0000000000000000    0.1418999999999999 # F72
  0.3420999999999997    0.0000999999999999    0.4947000000000000 # F73
  0.1397000000000000    0.9339000000000000    0.4842999999999999 # F74
  0.0754999999999999    0.7927999999999998    0.6409000000000001 # F75
  0.9192999999999999    0.2091000000000000    0.3616000000000003 # F76
  0.8421000000000000    0.5001000000000001    0.9947000000000003 # F77
  0.6396999999999998    0.4339000000000000    0.9843000000000003 # F78
  0.5755000000000001    0.2928000000000000    0.1408999999999999 # F79
  0.4193000000000000    0.7090999999999998    0.8615999999999997 # F80
