$cell vectors
1.0
 12.4639941351673649    0.0000000000000000    0.0000000000000000
  0.0000000000000000   12.4639941351673649    0.0000000000000000
  0.0000000000000000    0.0000000000000053   26.2229876609831365
 64 128
Direct
  0.3349000000000003    0.7906000000000000    0.0576999999999999 # Si1
  0.3347000000000002    0.5369000000000000    0.0574999999999999 # Si2
  0.7117999999999998    0.7931000000000000    0.0573999999999999 # Si3
  0.7117000000000002    0.5423000000000001    0.0578000000000001 # Si4
  0.9578999999999999    0.7959999999999999    0.0541000000000001 # Si5
  0.9576999999999999    0.5414000000000002    0.0551000000000000 # Si6
  0.1388000000000000    0.8612000000000000    0.1250000000000000 # Si7
  0.5283000000000000    0.8587000000000000    0.1253000000000000 # Si8
  0.5275000000000000    0.4725000000000000    0.1250000000000000 # Si9
  0.2094000000000001    0.3349000000000001    0.3077000000000000 # Si10
  0.4631000000000001    0.3347000000000001    0.3075000000000002 # Si11
  0.2069000000000000    0.7118000000000002    0.3073999999999998 # Si12
  0.4577000000000004    0.7117000000000001    0.3078000000000000 # Si13
  0.2040000000000000    0.9578999999999998    0.3040999999999999 # Si14
  0.4586000000000002    0.9577000000000002    0.3051000000000000 # Si15
  0.1388000000000000    0.1387999999999998    0.3749999999999998 # Si16
  0.1413000000000000    0.5282999999999999    0.3752999999999999 # Si17
  0.5275000000000004    0.5274999999999999    0.3749999999999998 # Si18
  0.6651000000000002    0.2093999999999998    0.5577000000000001 # Si19
  0.6653000000000002    0.4630999999999998    0.5575000000000002 # Si20
  0.2882000000000001    0.2068999999999998    0.5574000000000000 # Si21
  0.2882999999999999    0.4577000000000002    0.5578000000000002 # Si22
  0.0421000000000001    0.2039999999999997    0.5540999999999999 # Si23
  0.0423000000000001    0.4586000000000000    0.5550999999999999 # Si24
  0.8612000000000000    0.1387999999999997    0.6250000000000000 # Si25
  0.4717000000000001    0.1412999999999997    0.6252999999999999 # Si26
  0.4725000000000001    0.5275000000000002    0.6250000000000001 # Si27
  0.7906000000000004    0.6650999999999999    0.8077000000000001 # Si28
  0.5369000000000004    0.6652999999999999    0.8075000000000000 # Si29
  0.7931000000000004    0.2881999999999998    0.8074000000000000 # Si30
  0.5423000000000001    0.2882999999999999    0.8078000000000000 # Si31
  0.7960000000000005    0.0420999999999997    0.8041000000000000 # Si32
  0.5414000000000002    0.0422999999999998    0.8051000000000001 # Si33
  0.8612000000000000    0.8611999999999996    0.8750000000000001 # Si34
  0.8587000000000000    0.4716999999999997    0.8752999999999999 # Si35
  0.4725000000000001    0.4725000000000001    0.8750000000000001 # Si36
  0.3348999999999998    0.2093999999999999    0.4423000000000000 # Si37
  0.3347000000000002    0.4630999999999999    0.4424999999999997 # Si38
  0.7117999999999998    0.2068999999999998    0.4426000000000000 # Si39
  0.7117000000000002    0.4576999999999997    0.4422000000000000 # Si40
  0.9578999999999999    0.2039999999999998    0.4459000000000001 # Si41
  0.9576999999999999    0.4586000000000001    0.4449000000000000 # Si42
  0.5283000000000000    0.1412999999999998    0.3746999999999999 # Si43
  0.6651000000000002    0.7906000000000000    0.9422999999999999 # Si44
  0.6653000000000002    0.5368999999999999    0.9425000000000000 # Si45
  0.2882000000000001    0.7930999999999999    0.9426000000000000 # Si46
  0.2883000000000003    0.5422999999999997    0.9422000000000003 # Si47
  0.0421000000000001    0.7960000000000000    0.9458999999999999 # Si48
  0.0423000000000001    0.5413999999999998    0.9449000000000000 # Si49
  0.4717000000000001    0.8586999999999997    0.8746999999999999 # Si50
  0.7906000000000004    0.3349000000000000    0.6923000000000002 # Si51
  0.5369000000000000    0.3346999999999999    0.6925000000000000 # Si52
  0.7931000000000004    0.7118000000000000    0.6926000000000000 # Si53
  0.5423000000000001    0.7116999999999999    0.6922000000000000 # Si54
  0.7960000000000005    0.9579000000000000    0.6959000000000001 # Si55
  0.5414000000000002    0.9577000000000000    0.6949000000000002 # Si56
  0.8587000000000000    0.5282999999999998    0.6247000000000001 # Si57
  0.2094000000000001    0.6650999999999997    0.1923000000000000 # Si58
  0.4631000000000001    0.6653000000000001    0.1924999999999999 # Si59
  0.2069000000000000    0.2882000000000001    0.1925999999999999 # Si60
  0.4576999999999999    0.2882999999999998    0.1922000000000000 # Si61
  0.2040000000000000    0.0421000000000000    0.1959000000000000 # Si62
  0.4586000000000002    0.0423000000000000    0.1948999999999999 # Si63
  0.1413000000000000    0.4717000000000000    0.1247000000000001 # Si64
  0.3234000000000001    0.6637000000000000    0.0673999999999999 # O1
  0.3347000000000002    0.8228999999999999    0.9979000000000001 # O2
  0.2263000000000003    0.8492000000000003    0.0796000000000001 # O3
  0.4458000000000003    0.8389000000000003    0.0783000000000000 # O4
  0.3370000000000002    0.5096999999999998    0.9971999999999999 # O5
  0.2302000000000000    0.4794999999999999    0.0823000000000000 # O6
  0.4488000000000002    0.4906000000000000    0.0771999999999999 # O7
  0.7064999999999999    0.6687000000000002    0.0704000000000000 # O8
  0.8362000000000002    0.8364000000000001    0.0618000000000001 # O9
  0.6455000000000001    0.8614000000000002    0.0989000000000001 # O10
  0.8364000000000001    0.5035999999999999    0.0611000000000000 # O11
  0.6431000000000001    0.4764000000000002    0.0990000000000001 # O12
  0.0000000000000000    0.8443000000000004    0.0000000000000000 # O13
  0.9687999999999999    0.6685999999999999    0.0601000000000001 # O14
  0.0255000000000002    0.8528000000000000    0.0972000000000001 # O15
  0.0000000000000000    0.4993000000000001    0.0000000000000000 # O16
  0.0259000000000002    0.4859000000000001    0.0993000000000001 # O17
  0.3363000000000000    0.3234000000000000    0.3174000000000002 # O18
  0.1771000000000001    0.3347000000000001    0.2479000000000001 # O19
  0.1508000000000003    0.2262999999999997    0.3295999999999999 # O20
  0.1611000000000002    0.4458000000000001    0.3282999999999999 # O21
  0.4903000000000001    0.3370000000000001    0.2471999999999999 # O22
  0.5205000000000002    0.2301999999999998    0.3322999999999999 # O23
  0.5094000000000001    0.4488000000000000    0.3271999999999998 # O24
  0.3313000000000003    0.7064999999999998    0.3203999999999999 # O25
  0.1636000000000003    0.8362000000000001    0.3118000000000000 # O26
  0.1385999999999999    0.6455000000000000    0.3489000000000000 # O27
  0.4964000000000001    0.8364000000000000    0.3111000000000000 # O28
  0.5236000000000002    0.6431000000000000    0.3490000000000000 # O29
  0.1557000000000001   -0.0000000000000001    0.2500000000000001 # O30
  0.3314000000000001    0.9688000000000002    0.3100999999999999 # O31
  0.1472000000000000    0.0255000000000000    0.3471999999999999 # O32
  0.5006999999999999   -0.0000000000000001    0.2500000000000001 # O33
  0.5140999999999999    0.0259000000000000    0.3492999999999999 # O34
  0.6766000000000003    0.3363000000000001    0.5673999999999999 # O35
  0.6653000000000002    0.1770999999999999    0.4979000000000000 # O36
  0.7737000000000002    0.1508000000000000    0.5796000000000000 # O37
  0.5542000000000001    0.1611000000000000    0.5783000000000001 # O38
  0.6630000000000001    0.4902999999999999    0.4971999999999998 # O39
  0.7697999999999998    0.5205000000000000    0.5823000000000004 # O40
  0.5511999999999999    0.5093999999999999    0.5772000000000003 # O41
  0.2935000000000000    0.3313000000000000    0.5704000000000001 # O42
  0.1637999999999999    0.1636000000000000    0.5617999999999999 # O43
  0.3544999999999999    0.1385999999999997    0.5988999999999998 # O44
  0.1636000000000003    0.4963999999999998    0.5610999999999998 # O45
  0.3569000000000002    0.5236000000000000    0.5990000000000002 # O46
  0.0000000000000000    0.1556999999999999    0.4999999999999999 # O47
  0.0312000000000001    0.3313999999999999    0.5600999999999999 # O48
  0.9745000000000001    0.1471999999999997    0.5972000000000001 # O49
  0.0000000000000000    0.5007000000000001    0.4999999999999999 # O50
  0.9741000000000002    0.5141000000000001    0.5992999999999998 # O51
  0.6637000000000000    0.6766000000000000    0.8174000000000002 # O52
  0.8229000000000003    0.6652999999999999    0.7479000000000000 # O53
  0.8492000000000003    0.7736999999999998    0.8296000000000002 # O54
  0.8389000000000003    0.5541999999999998    0.8283000000000000 # O55
  0.5097000000000003    0.6629999999999998    0.7472000000000001 # O56
  0.4795000000000003    0.7697999999999995    0.8323000000000000 # O57
  0.4906000000000004    0.5512000000000000    0.8272000000000000 # O58
  0.6687000000000002    0.2934999999999997    0.8204000000000002 # O59
  0.8364000000000001    0.1637999999999999    0.8118000000000002 # O60
  0.8614000000000002    0.3545000000000001    0.8489000000000001 # O61
  0.5036000000000004    0.1635999999999999    0.8110999999999998 # O62
  0.4764000000000003    0.3568999999999998    0.8490000000000000 # O63
  0.8443000000000004   -0.0000000000000003    0.7500000000000000 # O64
  0.6685999999999999    0.0312000000000002    0.8100999999999999 # O65
  0.8528000000000000    0.9744999999999998    0.8472000000000002 # O66
  0.4993000000000001   -0.0000000000000003    0.7500000000000000 # O67
  0.4859000000000002    0.9740999999999999    0.8493000000000001 # O68
  0.3234000000000001    0.3362999999999998    0.4325999999999998 # O69
  0.3347000000000002    0.1770999999999999    0.5020999999999999 # O70
  0.2262999999999998    0.1508000000000001    0.4204000000000000 # O71
  0.4458000000000003    0.1611000000000000    0.4216999999999999 # O72
  0.3370000000000002    0.4902999999999999    0.5027999999999998 # O73
  0.2302000000000000    0.5205000000000000    0.4176999999999999 # O74
  0.4488000000000002    0.5093999999999999    0.4228000000000001 # O75
  0.7064999999999999    0.3313000000000001    0.4295999999999998 # O76
  0.8362000000000002    0.1636000000000001    0.4381999999999999 # O77
  0.6455000000000001    0.1385999999999998    0.4011000000000000 # O78
  0.8364000000000001    0.4963999999999999    0.4389000000000000 # O79
  0.6431000000000001    0.5236000000000000    0.4009999999999998 # O80
  0.9687999999999999    0.3313999999999999    0.4398999999999999 # O81
  0.0255000000000002    0.1471999999999998    0.4028000000000001 # O82
  0.0259000000000002    0.5140999999999997    0.4006999999999998 # O83
  0.6766000000000003    0.6636999999999995    0.9326000000000001 # O84
  0.6653000000000002    0.8228999999999999    0.0021000000000000 # O85
  0.7737000000000002    0.8491999999999998    0.9204000000000001 # O86
  0.5542000000000001    0.8388999999999999    0.9217000000000002 # O87
  0.6630000000000001    0.5096999999999999    0.0028000000000001 # O88
  0.7697999999999998    0.4794999999999999    0.9177000000000001 # O89
  0.5511999999999999    0.4906000000000000    0.9227999999999998 # O90
  0.2935000000000000    0.6686999999999997    0.9296000000000001 # O91
  0.1638000000000003    0.8363999999999997    0.9382000000000001 # O92
  0.3545000000000004    0.8613999999999998    0.9011000000000002 # O93
  0.1636000000000003    0.5035999999999999    0.9389000000000001 # O94
  0.3569000000000002    0.4763999999999999    0.9009999999999999 # O95
  0.0312000000000001    0.6686000000000000    0.9399000000000001 # O96
  0.9745000000000001    0.8527999999999997    0.9027999999999998 # O97
  0.9741000000000002    0.4858999999999998    0.9007000000000002 # O98
  0.6637000000000000    0.3233999999999999    0.6826000000000001 # O99
  0.8229000000000003    0.3346999999999999    0.7521000000000001 # O100
  0.8492000000000003    0.2263000000000000    0.6704000000000001 # O101
  0.8389000000000003    0.4458000000000000    0.6717000000000002 # O102
  0.5097000000000003    0.3369999999999999    0.7528000000000001 # O103
  0.4794999999999999    0.2301999999999997    0.6676999999999997 # O104
  0.4906000000000000    0.4487999999999999    0.6728000000000003 # O105
  0.6687000000000002    0.7064999999999996    0.6796000000000002 # O106
  0.8364000000000001    0.8361999999999998    0.6882000000000003 # O107
  0.8614000000000002    0.6454999999999999    0.6510999999999999 # O108
  0.5036000000000004    0.8363999999999998    0.6889000000000001 # O109
  0.4764000000000003    0.6430999999999999    0.6510000000000002 # O110
  0.6685999999999999    0.9688000000000000    0.6899000000000000 # O111
  0.8528000000000000    0.0254999999999999    0.6528000000000002 # O112
  0.4859000000000002    0.0258999999999999    0.6507000000000002 # O113
  0.3363000000000000    0.6765999999999998    0.1825999999999999 # O114
  0.1771000000000001    0.6653000000000001    0.2520999999999998 # O115
  0.1508000000000003    0.7737000000000001    0.1704000000000000 # O116
  0.1611000000000002    0.5542000000000000    0.1717000000000001 # O117
  0.4903000000000001    0.6630000000000000    0.2528000000000000 # O118
  0.5205000000000002    0.7697999999999997    0.1677000000000001 # O119
  0.5094000000000001    0.5511999999999998    0.1727999999999999 # O120
  0.3313000000000003    0.2934999999999999    0.1796000000000001 # O121
  0.1635999999999998    0.1637999999999998    0.1882000000000000 # O122
  0.1385999999999999    0.3544999999999999    0.1511000000000000 # O123
  0.4964000000000001    0.1635999999999997    0.1888999999999999 # O124
  0.5236000000000002    0.3569000000000001    0.1510000000000000 # O125
  0.3314000000000001    0.0312000000000000    0.1899000000000000 # O126
  0.1472000000000000    0.9745000000000000    0.1528000000000000 # O127
  0.5140999999999999    0.9740999999999996    0.1507000000000000 # O128
