$cell vectors
1.0
 17.4899917702244245    0.0000000000000000    0.0000000000000000
  0.0000000000000000   17.4899917702244245    0.0000000000000000
  0.0000000000000000    0.0000000000000000    3.9439981441832530
 24 64 6
Direct
  0.0654000000000001    0.1357000000000001    0.0550000000000000 # Nb1
  0.0731000000000001    0.3740000000000000    0.0607999999999999 # Nb2
  0.2477999999999999    0.0674000000000001    0.0474000000000000 # Nb3
  0.2508999999999998    0.2601000000000000    0.0944999999999996 # Nb4
  0.4298999999999998    0.1421000000000001    0.0711000000000000 # Nb5
  0.4477999999999998    0.3558999999999998    0.0510000000000002 # Nb6
  0.8642999999999998    0.0654000000000001    0.0550000000000000 # Nb7
  0.6260000000000000    0.0731000000000001    0.0607999999999999 # Nb8
  0.9326000000000000    0.2477999999999999    0.0474000000000000 # Nb9
  0.7398999999999998    0.2508999999999998    0.0944999999999996 # Nb10
  0.8578999999999999    0.4298999999999998    0.0711000000000000 # Nb11
  0.6441000000000000    0.4477999999999998    0.0510000000000002 # Nb12
  0.9346000000000000    0.8642999999999998    0.0550000000000000 # Nb13
  0.9268999999999999    0.6260000000000000    0.0607999999999999 # Nb14
  0.7522000000000001    0.9326000000000000    0.0474000000000000 # Nb15
  0.7491000000000001    0.7398999999999998    0.0944999999999996 # Nb16
  0.5701000000000002    0.8578999999999999    0.0711000000000000 # Nb17
  0.5521999999999999    0.6441000000000000    0.0510000000000002 # Nb18
  0.1357000000000001    0.9346000000000000    0.0550000000000000 # Nb19
  0.3740000000000000    0.9268999999999999    0.0607999999999999 # Nb20
  0.0674000000000001    0.7521999999999999    0.0474000000000000 # Nb21
  0.2601000000000000    0.7491000000000001    0.0944999999999996 # Nb22
  0.1421000000000001    0.5701000000000002    0.0711000000000000 # Nb23
  0.3559000000000001    0.5521999999999999    0.0510000000000002 # Nb24
  0.1357000000000001    0.0447999999999999    0.1130000000000006 # O1
  0.3721999999999998    0.0430000000000000    0.0930000000000000 # O2
  0.1825999999999999    0.1695999999999998    0.0329999999999995 # O3
  0.3173000000000001    0.1770000000000000    0.1210000000000003 # O4
  0.0427999999999999    0.2473000000000000    0.0249999999999998 # O5
  0.4739999999999998    0.2453000000000001    0.0910000000000001 # O6
  0.1696000000000002    0.3463999999999998    0.0209999999999999 # O7
  0.3332000000000001    0.3277000000000000    0.1349999999999998 # O8
  0.0865000000000002    0.4717999999999998    0.1009999999999997 # O9
  0.3993000000000002    0.4644999999999999    0.1210000000000003 # O10
  0.0688000000000000    0.1340000000000000    0.5740000000000006 # O11
  0.2501999999999999    0.0766000000000002    0.5530000000000007 # O12
  0.4308000000000001    0.1419000000000001    0.5510000000000008 # O13
  0.2503000000000001    0.2649000000000001    0.5520000000000002 # O14
  0.0634000000000001    0.3668000000000000    0.5639999999999996 # O15
  0.4362000000000000    0.3542000000000000    0.5619999999999997 # O16
  0.9551999999999996    0.1357000000000001    0.1130000000000006 # O17
  0.9570000000000000    0.3721999999999998    0.0930000000000000 # O18
  0.8303999999999997    0.1825999999999999    0.0329999999999995 # O19
  0.8230000000000000    0.3173000000000001    0.1210000000000003 # O20
  0.7527000000000000    0.0427999999999999    0.0249999999999998 # O21
  0.7546999999999999    0.4739999999999998    0.0910000000000001 # O22
  0.6535999999999998    0.1695999999999998    0.0209999999999999 # O23
  0.6722999999999999    0.3332000000000001    0.1349999999999998 # O24
  0.5281999999999998    0.0864999999999999    0.1009999999999997 # O25
  0.5354999999999998    0.3992999999999998    0.1210000000000003 # O26
  0.8660000000000000    0.0688000000000000    0.5740000000000006 # O27
  0.9234000000000000    0.2501999999999999    0.5530000000000007 # O28
  0.8580999999999999    0.4308000000000001    0.5510000000000008 # O29
  0.7351000000000000    0.2503000000000001    0.5520000000000002 # O30
  0.6332000000000002    0.0634000000000001    0.5639999999999996 # O31
  0.6457999999999997    0.4362000000000000    0.5619999999999997 # O32
  0.8643000000000003    0.9551999999999996    0.1130000000000006 # O33
  0.6277999999999999    0.9570000000000000    0.0930000000000000 # O34
  0.8174000000000001    0.8303999999999997    0.0329999999999995 # O35
  0.6826999999999999    0.8230000000000000    0.1210000000000003 # O36
  0.9572000000000001    0.7527000000000000    0.0249999999999998 # O37
  0.5259999999999998    0.7546999999999999    0.0910000000000001 # O38
  0.8303999999999997    0.6535999999999998    0.0209999999999999 # O39
  0.6667999999999998    0.6722999999999999    0.1349999999999998 # O40
  0.9134999999999998    0.5281999999999998    0.1009999999999997 # O41
  0.6006999999999998    0.5354999999999998    0.1210000000000003 # O42
  0.9311999999999998    0.8660000000000000    0.5740000000000006 # O43
  0.7498000000000001    0.9234000000000000    0.5530000000000007 # O44
  0.5691999999999998    0.8580999999999999    0.5510000000000008 # O45
  0.7496999999999998    0.7351000000000000    0.5520000000000002 # O46
  0.9366000000000000    0.6332000000000002    0.5639999999999996 # O47
  0.5638000000000000    0.6457999999999997    0.5619999999999997 # O48
  0.0447999999999999    0.8642999999999998    0.1130000000000006 # O49
  0.0430000000000000    0.6277999999999999    0.0930000000000000 # O50
  0.1696000000000002    0.8173999999999999    0.0329999999999995 # O51
  0.1770000000000000    0.6826999999999999    0.1210000000000003 # O52
  0.2473000000000000    0.9572000000000001    0.0249999999999998 # O53
  0.2453000000000001    0.5259999999999998    0.0910000000000001 # O54
  0.3464000000000000    0.8303999999999997    0.0209999999999999 # O55
  0.3277000000000000    0.6667999999999998    0.1349999999999998 # O56
  0.4718000000000002    0.9134999999999998    0.1009999999999997 # O57
  0.4644999999999999    0.6006999999999998    0.1210000000000003 # O58
  0.1340000000000000    0.9311999999999998    0.5740000000000006 # O59
  0.0766000000000002    0.7498000000000001    0.5530000000000007 # O60
  0.1419000000000001    0.5691999999999998    0.5510000000000008 # O61
  0.2649000000000001    0.7496999999999998    0.5520000000000002 # O62
  0.3668000000000000    0.9366000000000000    0.5639999999999996 # O63
  0.3542000000000000    0.5638000000000000    0.5619999999999997 # O64
  0.2588000000000000    0.4238999999999999    0.5330000000000003 # Na1
  0.4999999999999999    0.0000000000000000    0.6699999999999999 # Na2
  0.5761000000000001    0.2588000000000000    0.5330000000000003 # Na3
  0.7412000000000001    0.5761000000000001    0.5330000000000003 # Na4
  0.4238999999999999    0.7412000000000001    0.5330000000000003 # Na5
  0.0000000000000000    0.4999999999999999    0.6699999999999999 # Na6
