$cell vectors
1.0
  7.4299965038746407    0.0000000000000000    0.0000000000000000
  0.0000000000000000    7.4299965038746407    0.0000000000000000
  0.0000000000000000    0.0000000000000000   10.6099950075518112
 4 8 24
Direct
  0.2500000000000000    0.2500000000000000    0.2499999999999997 # Sn1
  0.7500000000000001    0.7500000000000001    0.2499999999999997 # Sn2
  0.2500000000000000    0.7500000000000001    0.7499999999999997 # Sn3
  0.7500000000000001    0.2500000000000000    0.7499999999999997 # Sn4
  0.0000000000000000    0.0000000000000000    0.0000000000000000 # K1
  0.0000000000000000    0.0000000000000000    0.5000000000000000 # K2
  0.5000000000000000    0.5000000000000000    0.0000000000000000 # K3
  0.5000000000000000    0.5000000000000000    0.5000000000000000 # K4
  0.0000000000000000    0.5000000000000000    0.0000000000000000 # K5
  0.0000000000000000    0.5000000000000000    0.5000000000000000 # K6
  0.5000000000000000    0.0000000000000000    0.0000000000000000 # K7
  0.5000000000000000    0.0000000000000000    0.5000000000000000 # K8
  0.2500000000000000    0.2500000000000000    0.5399999999999998 # Br1
  0.2500000000000000    0.2500000000000000    0.9800000000000000 # Br2
  0.2200000000000002    0.0000000000000000    0.2449999999999998 # Br3
  0.7500000000000001    0.7500000000000001    0.5399999999999998 # Br4
  0.7500000000000001    0.7500000000000001    0.9800000000000000 # Br5
  0.7200000000000002    0.5000000000000000    0.2449999999999998 # Br6
  0.0000000000000000    0.7200000000000002    0.2449999999999998 # Br7
  0.5000000000000000    0.2200000000000002    0.2449999999999998 # Br8
  0.7799999999999999    0.0000000000000000    0.2449999999999998 # Br9
  0.2799999999999999    0.5000000000000000    0.2449999999999998 # Br10
  0.0000000000000000    0.2799999999999999    0.2449999999999998 # Br11
  0.5000000000000000    0.7799999999999999    0.2449999999999998 # Br12
  0.2500000000000000    0.7500000000000001    0.4599999999999997 # Br13
  0.2500000000000000    0.7500000000000001    0.0200000000000001 # Br14
  0.2200000000000002    0.0000000000000000    0.7549999999999997 # Br15
  0.7500000000000001    0.2500000000000000    0.4599999999999997 # Br16
  0.7500000000000001    0.2500000000000000    0.0200000000000001 # Br17
  0.7200000000000002    0.5000000000000000    0.7549999999999997 # Br18
  0.7799999999999999    0.0000000000000000    0.7549999999999997 # Br19
  0.2799999999999999    0.5000000000000000    0.7549999999999997 # Br20
  0.0000000000000000    0.7200000000000002    0.7549999999999997 # Br21
  0.5000000000000000    0.2200000000000002    0.7549999999999997 # Br22
  0.0000000000000000    0.2799999999999999    0.7549999999999997 # Br23
  0.5000000000000000    0.7799999999999999    0.7549999999999997 # Br24
