$cell vectors
1.0
  7.1039966572712574    0.0000000000000000    0.0000000000000000
  0.0000000000000000    7.1039966572712574    0.0000000000000000
  0.0000000000000000    0.0000000000000053   36.5969827795828024
 48 32
Direct
  0.9660000000000000    0.9660000000000000    0.0000000000000000 # Y1
  0.3170000000000000    0.3170000000000000    0.0000000000000000 # Y2
  0.8080000000000005    0.4430000000000001    0.0156000000000001 # Y3
  0.1629999999999999    0.6590000000000001    0.0679999999999999 # Y4
  0.6449999999999999    0.8090000000000001    0.0747000000000001 # Y5
  0.0120000000000003    0.1629999999999999    0.0891000000000001 # Y6
  0.5140000000000000    0.2930000000000000    0.0933000000000000 # Y7
  0.5340000000000005    0.4660000000000002    0.2500000000000000 # Y8
  0.1830000000000004    0.8170000000000002    0.2500000000000000 # Y9
  0.0570000000000003    0.3079999999999999    0.2656000000000000 # Y10
  0.8410000000000002    0.6630000000000000    0.3180000000000001 # Y11
  0.6910000000000003    0.1450000000000000    0.3247000000000000 # Y12
  0.3370000000000005    0.5119999999999998    0.3391000000000000 # Y13
  0.2070000000000002    0.0140000000000001    0.3433000000000000 # Y14
  0.0340000000000001    0.0339999999999997    0.5000000000000000 # Y15
  0.6830000000000001    0.6830000000000005    0.5000000000000000 # Y16
  0.1920000000000003    0.5570000000000004    0.5156000000000001 # Y17
  0.8370000000000001    0.3410000000000002    0.5680000000000001 # Y18
  0.3550000000000001    0.1909999999999994    0.5747000000000000 # Y19
  0.9880000000000005    0.8369999999999996    0.5890999999999998 # Y20
  0.4860000000000000    0.7070000000000002    0.5932999999999999 # Y21
  0.4660000000000004    0.5339999999999999    0.7500000000000000 # Y22
  0.8170000000000004    0.1829999999999999    0.7500000000000000 # Y23
  0.9430000000000004    0.6920000000000002    0.7656000000000001 # Y24
  0.1590000000000006    0.3369999999999999    0.8180000000000002 # Y25
  0.3090000000000006    0.8549999999999999    0.8247000000000000 # Y26
  0.6630000000000003    0.4880000000000002    0.8391000000000000 # Y27
  0.7930000000000006    0.9859999999999998    0.8433000000000000 # Y28
  0.3080000000000001    0.0569999999999997    0.7344000000000001 # Y29
  0.6630000000000003    0.8409999999999996    0.6820000000000001 # Y30
  0.1450000000000002    0.6909999999999997    0.6753000000000000 # Y31
  0.5120000000000000    0.3370000000000000    0.6609000000000002 # Y32
  0.0140000000000003    0.2069999999999997    0.6567000000000002 # Y33
  0.6919999999999999    0.9430000000000002    0.2344000000000000 # Y34
  0.3369999999999997    0.1589999999999997    0.1820000000000000 # Y35
  0.8549999999999998    0.3090000000000004    0.1753000000000001 # Y36
  0.4880000000000001    0.6630000000000001    0.1609000000000000 # Y37
  0.9860000000000004    0.7929999999999997    0.1567000000000000 # Y38
  0.4430000000000008    0.8079999999999997    0.9844000000000001 # Y39
  0.6590000000000001    0.1630000000000000    0.9320000000000002 # Y40
  0.8090000000000002    0.6449999999999999    0.9253000000000002 # Y41
  0.1630000000000007    0.0119999999999996    0.9109000000000003 # Y42
  0.2930000000000001    0.5140000000000000    0.9067000000000001 # Y43
  0.5569999999999999    0.1919999999999999    0.4844000000000001 # Y44
  0.3410000000000006    0.8369999999999997    0.4320000000000000 # Y45
  0.1909999999999999    0.3549999999999998    0.4253000000000000 # Y46
  0.8370000000000001    0.9880000000000002    0.4109000000000000 # Y47
  0.7069999999999997    0.4859999999999998    0.4067000000000001 # Y48
  0.3100000000000001    0.0080000000000002    0.0484000000000001 # Ni1
  0.6299999999999999    0.1009999999999999    0.0257000000000000 # Ni2
  0.8399999999999999    0.5099999999999998    0.1063000000000000 # Ni3
  0.3220000000000005    0.9430000000000003    0.1167000000000000 # Ni4
  0.4920000000000002    0.8100000000000003    0.2984000000000000 # Ni5
  0.3990000000000005    0.1300000000000000    0.2757000000000000 # Ni6
  0.9900000000000005    0.3399999999999999    0.3563000000000000 # Ni7
  0.5569999999999999    0.8220000000000000    0.3667000000000001 # Ni8
  0.6899999999999998    0.9920000000000001    0.5484000000000001 # Ni9
  0.3700000000000002    0.8989999999999998    0.5257000000000002 # Ni10
  0.1600000000000002    0.4899999999999997    0.6063000000000003 # Ni11
  0.6780000000000004    0.0569999999999998    0.6167000000000001 # Ni12
  0.5080000000000006    0.1899999999999996    0.7984000000000001 # Ni13
  0.6010000000000003    0.8700000000000000    0.7757000000000001 # Ni14
  0.0100000000000002    0.6600000000000000    0.8563000000000003 # Ni15
  0.4430000000000001    0.1780000000000000    0.8667000000000002 # Ni16
  0.8100000000000005    0.4919999999999997    0.7015999999999999 # Ni17
  0.1300000000000002    0.3990000000000000    0.7243000000000001 # Ni18
  0.3400000000000002    0.9900000000000001    0.6437000000000000 # Ni19
  0.8220000000000002    0.5570000000000003    0.6333000000000002 # Ni20
  0.1900000000000002    0.5079999999999998    0.2016000000000000 # Ni21
  0.8700000000000006    0.6010000000000001    0.2243000000000001 # Ni22
  0.6599999999999998    0.0100000000000001    0.1437000000000001 # Ni23
  0.1779999999999999    0.4430000000000000    0.1333000000000001 # Ni24
  0.0080000000000002    0.3100000000000002    0.9516000000000002 # Ni25
  0.1010000000000006    0.6299999999999998    0.9743000000000003 # Ni26
  0.5100000000000007    0.8399999999999999    0.8937000000000000 # Ni27
  0.9430000000000004    0.3219999999999998    0.8833000000000001 # Ni28
  0.9920000000000005    0.6900000000000004    0.4516000000000000 # Ni29
  0.8990000000000002    0.3699999999999998    0.4743000000000001 # Ni30
  0.4900000000000002    0.1599999999999999    0.3937000000000001 # Ni31
  0.0570000000000003    0.6780000000000000    0.3833000000000000 # Ni32
