$cell vectors
1.0
 10.3299951393035059    0.0000000000000000    0.0000000000000000
  0.0000000000000000   10.3299951393035059    0.0000000000000000
  0.0000000000000000    0.0000000000000000   20.3799904103587082
 8 16 80 128
Direct
  0.0000000000000000    0.7500000000000001    0.8749999999999999 # Mg1
  0.5000000000000000    0.2500000000000000    0.3749999999999999 # Mg2
  0.0000000000000000    0.2500000000000000    0.1250000000000001 # Mg3
  0.5000000000000000    0.7500000000000001    0.6249999999999998 # Mg4
  0.5000000000000000    0.7500000000000001    0.1250000000000001 # Mg5
  0.0000000000000000    0.2500000000000000    0.6249999999999998 # Mg6
  0.5000000000000000    0.2500000000000000    0.8749999999999999 # Mg7
  0.0000000000000000    0.7500000000000001    0.3749999999999999 # Mg8
  0.2401000000000001    0.0000000000000000    0.2499999999999999 # P1
  0.7401000000000001    0.5000000000000000    0.7499999999999999 # P2
  0.7598999999999999    0.0000000000000000    0.7499999999999999 # P3
  0.2599000000000000    0.5000000000000000    0.2499999999999999 # P4
  0.2500000000000000    0.9901000000000001    0.5000000000000000 # P5
  0.7500000000000001    0.4901000000000001    0.0000000000000000 # P6
  0.7500000000000001    0.0099000000000000    0.5000000000000000 # P7
  0.2500000000000000    0.5098999999999999    0.0000000000000000 # P8
  0.7598999999999999    0.5000000000000000    0.2499999999999999 # P9
  0.2599000000000000    0.0000000000000000    0.7499999999999999 # P10
  0.2401000000000001    0.5000000000000000    0.7499999999999999 # P11
  0.7401000000000001    0.0000000000000000    0.2499999999999999 # P12
  0.2500000000000000    0.0099000000000000    0.0000000000000000 # P13
  0.7500000000000001    0.5098999999999999    0.5000000000000000 # P14
  0.7500000000000001    0.9901000000000001    0.0000000000000000 # P15
  0.2500000000000000    0.4901000000000001    0.5000000000000000 # P16
  0.0000000000000000    0.7500000000000001    0.7650000000000000 # O1
  0.1977999999999999    0.7480000000000000    0.8739999999999999 # O2
  0.1630000000000002   -0.0869999999999998    0.2054999999999999 # O3
  0.5000000000000000    0.2500000000000000    0.2650000000000000 # O4
  0.6978000000000000    0.2480000000000001    0.3739999999999999 # O5
  0.6630000000000003    0.4130000000000003    0.7054999999999999 # O6
  0.0000000000000000    0.2500000000000000    0.2350000000000000 # O7
  0.8022000000000000    0.2520000000000000    0.1259999999999998 # O8
  0.8370000000000003    0.0870000000000003    0.7945000000000001 # O9
  0.5000000000000000    0.7500000000000001    0.7349999999999998 # O10
  0.3022000000000001    0.7520000000000000    0.6260000000000001 # O11
  0.3369999999999998    0.5869999999999999    0.2944999999999999 # O12
  0.5000000000000000    0.7500000000000001    0.0150000000000001 # O13
  0.5019999999999999    0.9477999999999998    0.1240000000000000 # O14
  0.3369999999999998    0.9130000000000001    0.4555000000000001 # O15
  0.0000000000000000    0.2500000000000000    0.5149999999999998 # O16
  0.0020000000000000    0.4477999999999999    0.6240000000000001 # O17
  0.8369999999999999    0.4130000000000003   -0.0445000000000000 # O18
  0.5000000000000000    0.2500000000000000    0.9849999999999999 # O19
  0.4980000000000000    0.0522000000000001    0.8760000000000002 # O20
  0.6630000000000003    0.0870000000000003    0.5444999999999999 # O21
  0.0000000000000000    0.7500000000000001    0.4849999999999999 # O22
  0.9980000000000000    0.5522000000000000    0.3760000000000000 # O23
  0.1630000000000002    0.5869999999999999    0.0445000000000000 # O24
  0.8022000000000000    0.7520000000000000    0.8739999999999999 # O25
  0.8369999999999999    0.5869999999999999    0.2054999999999999 # O26
  0.3022000000000001    0.2520000000000000    0.3739999999999999 # O27
  0.3369999999999998    0.0870000000000003    0.7054999999999999 # O28
  0.1977999999999999    0.2480000000000001    0.1259999999999998 # O29
  0.1630000000000002    0.4130000000000003    0.7945000000000001 # O30
  0.6978000000000000    0.7480000000000000    0.6260000000000001 # O31
  0.6630000000000003   -0.0869999999999998    0.2944999999999999 # O32
  0.9980000000000000    0.0522000000000001    0.6240000000000001 # O33
  0.1630000000000002    0.0869999999999998   -0.0445000000000000 # O34
  0.4980000000000000    0.5522000000000000    0.1240000000000000 # O35
  0.6630000000000003    0.5869999999999999    0.4555000000000001 # O36
  0.0020000000000000    0.9477999999999998    0.3760000000000000 # O37
  0.8369999999999999    0.9130000000000001    0.0445000000000000 # O38
  0.5019999999999999    0.4477999999999999    0.8760000000000002 # O39
  0.3369999999999998    0.4130000000000003    0.5444999999999999 # O40
  0.0000000000000000    0.2500000000000000    0.7349999999999998 # O41
  0.1977999999999999    0.2520000000000000    0.6260000000000001 # O42
  0.1630000000000002    0.0870000000000003    0.2944999999999999 # O43
  0.5000000000000000    0.7500000000000001    0.2350000000000000 # O44
  0.6978000000000000    0.7520000000000000    0.1259999999999998 # O45
  0.6630000000000003    0.5870000000000003    0.7945000000000001 # O46
  0.0000000000000000    0.7500000000000001    0.2650000000000000 # O47
  0.8022000000000000    0.7480000000000000    0.3739999999999999 # O48
  0.8369999999999999   -0.0869999999999998    0.7054999999999999 # O49
  0.5000000000000000    0.2500000000000000    0.7650000000000000 # O50
  0.3022000000000001    0.2480000000000001    0.8739999999999999 # O51
  0.3369999999999998    0.4130000000000003    0.2054999999999999 # O52
  0.3022000000000001    0.7480000000000000    0.1259999999999998 # O53
  0.3369999999999998   -0.0869999999999998    0.7945000000000001 # O54
  0.8022000000000000    0.2480000000000001    0.6260000000000001 # O55
  0.8369999999999999    0.4130000000000003    0.2944999999999999 # O56
  0.6978000000000000    0.2520000000000000    0.8739999999999999 # O57
  0.6630000000000003    0.0869999999999998    0.2054999999999999 # O58
  0.1977999999999999    0.7520000000000000    0.3739999999999999 # O59
  0.1630000000000002    0.5870000000000003    0.7054999999999999 # O60
  0.5000000000000000    0.2500000000000000    0.4849999999999999 # O61
  0.4980000000000000    0.4477999999999999    0.3760000000000000 # O62
  0.6630000000000003    0.4130000000000003    0.0445000000000000 # O63
  0.0000000000000000    0.7500000000000001    0.9849999999999999 # O64
  0.9980000000000000    0.9477999999999998    0.8760000000000002 # O65
  0.1630000000000002    0.9130000000000001    0.5444999999999999 # O66
  0.5000000000000000    0.7500000000000001    0.5149999999999998 # O67
  0.5019999999999999    0.5522000000000000    0.6240000000000001 # O68
  0.3369999999999998    0.5869999999999999   -0.0445000000000000 # O69
  0.0000000000000000    0.2500000000000000    0.0150000000000001 # O70
  0.0020000000000000    0.0522000000000001    0.1240000000000000 # O71
  0.8369999999999999    0.0870000000000003    0.4555000000000001 # O72
  0.5019999999999999    0.0522000000000001    0.3760000000000000 # O73
  0.3369999999999998    0.0869999999999998    0.0445000000000000 # O74
  0.0020000000000000    0.5522000000000000    0.8760000000000002 # O75
  0.8369999999999999    0.5869999999999999    0.5444999999999999 # O76
  0.4980000000000000    0.9477999999999998    0.6240000000000001 # O77
  0.6630000000000003    0.9130000000000001   -0.0445000000000000 # O78
  0.9980000000000000    0.4477999999999999    0.1240000000000000 # O79
  0.1630000000000002    0.4130000000000003    0.4555000000000001 # O80
  0.0560000000000002    0.8089999999999997    0.2480000000000001 # H1
  0.2450000000000001    0.8099999999999996    0.1469999999999999 # H2
  0.2500000000000000    0.6770000000000000    0.1040000000000000 # H3
  0.3289999999999999    0.9049999999999997    0.2910000000000000 # H4
  0.5560000000000003    0.3090000000000002    0.7480000000000000 # H5
  0.7450000000000001    0.3100000000000002    0.6469999999999999 # H6
  0.7500000000000001    0.1770000000000000    0.6040000000000001 # H7
  0.8290000000000004    0.4050000000000003    0.7909999999999997 # H8
 -0.0559999999999997    0.1910000000000003    0.7520000000000000 # H9
  0.7549999999999999    0.1900000000000004    0.8530000000000001 # H10
  0.7500000000000001    0.3230000000000000    0.8960000000000000 # H11
  0.6710000000000002    0.0950000000000002    0.7090000000000002 # H12
  0.4439999999999998    0.6909999999999998    0.2520000000000000 # H13
  0.2549999999999999    0.6899999999999998    0.3529999999999998 # H14
  0.2500000000000000    0.8230000000000002    0.3960000000000000 # H15
  0.1710000000000001    0.5950000000000002    0.2090000000000000 # H16
  0.4410000000000003    0.8060000000000002    0.4979999999999999 # H17
  0.4399999999999999   -0.0049999999999999    0.3970000000000001 # H18
  0.5730000000000000    0.0000000000000000    0.3539999999999999 # H19
  0.3450000000000001    0.0789999999999999    0.5409999999999998 # H20
 -0.0590000000000002    0.3059999999999997   -0.0020000000000001 # H21
 -0.0599999999999997    0.4950000000000001    0.8970000000000001 # H22
  0.0730000000000000    0.5000000000000000    0.8539999999999999 # H23
  0.8449999999999998    0.5790000000000000    0.0410000000000001 # H24
  0.5590000000000002    0.1940000000000003    0.5020000000000001 # H25
  0.5600000000000003    1.0049999999999999    0.6030000000000000 # H26
  0.4270000000000000    1.0000000000000000    0.6460000000000001 # H27
  0.6550000000000005    0.9209999999999999    0.4589999999999999 # H28
  0.0590000000000002    0.6940000000000003    1.0019999999999998 # H29
  1.0599999999999996    0.5049999999999999    0.1030000000000000 # H30
  0.9269999999999998    0.5000000000000000    0.1459999999999999 # H31
  0.1550000000000003    0.4210000000000002    0.9590000000000000 # H32
 -0.0559999999999997    0.6909999999999998    0.2480000000000001 # H33
  0.7549999999999999    0.6899999999999998    0.1469999999999999 # H34
  0.7500000000000001    0.8230000000000002    0.1040000000000000 # H35
  0.6710000000000002    0.5950000000000002    0.2910000000000000 # H36
  0.4439999999999998    0.1910000000000003    0.7480000000000000 # H37
  0.2549999999999999    0.1900000000000004    0.6469999999999999 # H38
  0.2500000000000000    0.3230000000000000    0.6040000000000001 # H39
  0.1710000000000001    0.0950000000000002    0.7909999999999997 # H40
  0.0560000000000002    0.3090000000000002    0.7520000000000000 # H41
  0.2450000000000001    0.3100000000000002    0.8530000000000001 # H42
  0.2500000000000000    0.1770000000000000    0.8960000000000000 # H43
  0.3289999999999999    0.4050000000000003    0.7090000000000002 # H44
  0.5560000000000003    0.8089999999999997    0.2520000000000000 # H45
  0.7450000000000001    0.8099999999999996    0.3529999999999998 # H46
  0.7500000000000001    0.6770000000000000    0.3960000000000000 # H47
  0.8289999999999998    0.9049999999999997    0.2090000000000000 # H48
  0.0590000000000002    0.1939999999999998   -0.0020000000000001 # H49
  1.0600000000000001    1.0049999999999999    0.8970000000000001 # H50
  0.9269999999999998    1.0000000000000000    0.8539999999999999 # H51
  0.1549999999999998    0.9209999999999999    0.0410000000000001 # H52
  0.5590000000000002    0.6939999999999998    0.4979999999999999 # H53
  0.5600000000000003    0.5049999999999999    0.3970000000000001 # H54
  0.4270000000000000    0.5000000000000000    0.3539999999999999 # H55
  0.6549999999999999    0.4210000000000002    0.5409999999999998 # H56
 -0.0589999999999997    0.8060000000000002    1.0019999999999998 # H57
 -0.0600000000000002   -0.0049999999999999    0.1030000000000000 # H58
  0.0730000000000000    0.0000000000000000    0.1459999999999999 # H59
  0.8450000000000001    0.0790000000000004    0.9590000000000000 # H60
  0.4410000000000003    0.3060000000000002    0.5020000000000001 # H61
  0.4399999999999999    0.4950000000000001    0.6030000000000000 # H62
  0.5730000000000000    0.5000000000000000    0.6460000000000001 # H63
  0.3450000000000001    0.5790000000000000    0.4589999999999999 # H64
  0.0560000000000002    0.1909999999999998    0.2520000000000000 # H65
  0.2450000000000001    0.1899999999999998    0.3529999999999998 # H66
  0.2500000000000000    0.3230000000000000    0.3960000000000000 # H67
  0.3289999999999999    0.0950000000000002    0.2090000000000000 # H68
  0.5560000000000003    0.6910000000000004    0.7520000000000000 # H69
  0.7450000000000001    0.6900000000000004    0.8530000000000001 # H70
  0.7500000000000001    0.8230000000000002    0.8960000000000000 # H71
  0.8289999999999998    0.5950000000000002    0.7090000000000002 # H72
 -0.0559999999999997    0.8090000000000002    0.7480000000000000 # H73
  0.7549999999999999    0.8100000000000002    0.6469999999999999 # H74
  0.7500000000000001    0.6770000000000000    0.6040000000000001 # H75
  0.6710000000000002    0.9050000000000002    0.7909999999999997 # H76
  0.4439999999999998    0.3090000000000002    0.2480000000000001 # H77
  0.2549999999999999    0.3100000000000002    0.1469999999999999 # H78
  0.2500000000000000    0.1770000000000000    0.1040000000000000 # H79
  0.1710000000000001    0.4049999999999998    0.2910000000000000 # H80
  0.4440000000000003    0.8090000000000002    0.7520000000000000 # H81
  0.2549999999999999    0.8100000000000002    0.8530000000000001 # H82
  0.2500000000000000    0.6770000000000000    0.8960000000000000 # H83
  0.1710000000000001    0.9050000000000002    0.7090000000000002 # H84
 -0.0559999999999997    0.3090000000000002    0.2520000000000000 # H85
  0.7549999999999999    0.3100000000000002    0.3529999999999998 # H86
  0.7500000000000001    0.1770000000000000    0.3960000000000000 # H87
  0.6710000000000002    0.4049999999999998    0.2090000000000000 # H88
  0.5560000000000003    0.1909999999999998    0.2480000000000001 # H89
  0.7450000000000001    0.1899999999999998    0.1469999999999999 # H90
  0.7500000000000001    0.3230000000000000    0.1040000000000000 # H91
  0.8289999999999998    0.0950000000000002    0.2910000000000000 # H92
  0.0560000000000002    0.6910000000000004    0.7480000000000000 # H93
  0.2450000000000001    0.6900000000000004    0.6469999999999999 # H94
  0.2500000000000000    0.8230000000000002    0.6040000000000001 # H95
  0.3289999999999999    0.5950000000000002    0.7909999999999997 # H96
  0.5590000000000002    0.3060000000000002    1.0019999999999998 # H97
  0.5600000000000003    0.4950000000000001    0.1030000000000000 # H98
  0.4270000000000000    0.5000000000000000    0.1459999999999999 # H99
  0.6549999999999999    0.5790000000000000    0.9590000000000000 # H100
  0.0590000000000002    0.8060000000000002    0.5020000000000001 # H101
  1.0599999999999996   -0.0049999999999999    0.6030000000000000 # H102
  0.9269999999999998    0.0000000000000000    0.6460000000000001 # H103
  0.1549999999999998    0.0789999999999999    0.4589999999999999 # H104
  0.4409999999999999    0.6939999999999998   -0.0020000000000001 # H105
  0.4399999999999999    0.5049999999999999    0.8970000000000001 # H106
  0.5730000000000000    0.5000000000000000    0.8539999999999999 # H107
  0.3450000000000001    0.4210000000000002    0.0410000000000001 # H108
 -0.0589999999999997    0.1940000000000003    0.4979999999999999 # H109
 -0.0599999999999997    1.0049999999999999    0.3970000000000001 # H110
  0.0730000000000000    1.0000000000000000    0.3539999999999999 # H111
  0.8449999999999998    0.9209999999999999    0.5409999999999998 # H112
  0.4410000000000003    0.1940000000000003    1.0019999999999998 # H113
  0.4399999999999999    1.0049999999999999    0.1030000000000000 # H114
  0.5730000000000000    1.0000000000000000    0.1459999999999999 # H115
  0.3450000000000001    0.9209999999999999    0.9590000000000000 # H116
 -0.0589999999999997    0.6939999999999998    0.5020000000000001 # H117
 -0.0599999999999997    0.5049999999999999    0.6030000000000000 # H118
  0.0730000000000000    0.5000000000000000    0.6460000000000001 # H119
  0.8449999999999998    0.4210000000000002    0.4589999999999999 # H120
  0.5590000000000002    0.8060000000000002   -0.0020000000000001 # H121
  0.5600000000000003   -0.0049999999999999    0.8970000000000001 # H122
  0.4270000000000000    0.0000000000000000    0.8539999999999999 # H123
  0.6549999999999999    0.0789999999999999    0.0410000000000001 # H124
  0.0590000000000002    0.3060000000000002    0.4979999999999999 # H125
  1.0599999999999996    0.4950000000000001    0.3970000000000001 # H126
  0.9269999999999998    0.5000000000000000    0.3539999999999999 # H127
  0.1550000000000003    0.5790000000000000    0.5409999999999998 # H128
