$cell vectors
1.0
  8.4669960159228221    0.0000000000000000    0.0000000000000000
  0.0000000000000000    8.4669960159228221    0.0000000000000000
  0.0000000000000000    0.0000000000000000   12.7449940029451287
 8 4 4 40
Direct
  0.2530000000000001    0.7530000000000001    0.0000000000000000 # Xe1
  0.7530000000000001    0.2530000000000001    0.5000000000000000 # Xe2
  0.7530000000000001    0.7470000000000004    0.0000000000000000 # Xe3
  0.2530000000000001    0.2469999999999999    0.5000000000000000 # Xe4
  0.7470000000000004    0.2469999999999999    0.0000000000000000 # Xe5
  0.2469999999999999    0.7470000000000004    0.5000000000000000 # Xe6
  0.2469999999999999    0.2530000000000001    0.0000000000000000 # Xe7
  0.7470000000000004    0.7530000000000001    0.5000000000000000 # Xe8
  0.5000000000000000    0.5000000000000000    0.2499999999999998 # Ag1
  0.0000000000000000    0.0000000000000000    0.7499999999999998 # Ag2
  0.5000000000000000    0.5000000000000000    0.7499999999999998 # Ag3
  0.0000000000000000    0.0000000000000000    0.2499999999999998 # Ag4
  0.0000000000000000    0.5000000000000000    0.2499999999999998 # P1
  0.5000000000000000    0.0000000000000000    0.7499999999999998 # P2
  0.5000000000000000    0.0000000000000000    0.2499999999999998 # P3
  1.0000000000000000    0.5000000000000000    0.7499999999999998 # P4
  0.0000000000000000    0.5000000000000000    0.3750999999999997 # F1
  0.0788999999999999    0.6717000000000000    0.2490000000000002 # F2
  0.1120000000000002   -0.1240000000000000    0.5974000000000000 # F3
  0.5000000000000000    0.0000000000000000    0.8750999999999998 # F4
  0.5788999999999999    0.1716999999999999    0.7489999999999998 # F5
  0.6120000000000002    0.3759999999999999    0.0974000000000001 # F6
  0.5000000000000000    0.0000000000000000    0.6248999999999999 # F7
  0.6717000000000005   -0.0788999999999999    0.7510000000000000 # F8
 -0.1240000000000000   -0.1120000000000002    0.4026000000000000 # F9
  0.0000000000000000    0.5000000000000000    0.1248999999999999 # F10
  0.1716999999999999    0.4211000000000001    0.2509999999999998 # F11
  0.3759999999999999    0.3880000000000005    0.9026000000000000 # F12
 -0.0788999999999999    0.3283000000000001    0.2490000000000002 # F13
 -0.1120000000000002    0.1240000000000000    0.5974000000000000 # F14
  0.4211000000000001   -0.1716999999999999    0.7489999999999998 # F15
  0.3880000000000005    0.6240000000000000    0.0974000000000001 # F16
  0.3283000000000001    0.0788999999999999    0.7510000000000000 # F17
  0.1240000000000000    0.1120000000000002    0.4026000000000000 # F18
 -0.1716999999999999    0.5788999999999999    0.2509999999999998 # F19
  0.6240000000000006    0.6120000000000002    0.9026000000000000 # F20
  0.5000000000000000    0.0000000000000000    0.1248999999999999 # F21
  0.6717000000000000    0.0788999999999999    0.2509999999999998 # F22
 -0.1240000000000000    0.1120000000000002    0.9026000000000000 # F23
  1.0000000000000000    0.5000000000000000    0.6248999999999999 # F24
  1.1717000000000004    0.5788999999999999    0.7510000000000000 # F25
  0.3759999999999999    0.6120000000000002    0.4026000000000000 # F26
  0.3283000000000001   -0.0788999999999999    0.2509999999999998 # F27
  0.1240000000000000   -0.1120000000000002    0.9026000000000000 # F28
  0.8283000000000007    0.4211000000000001    0.7510000000000000 # F29
  0.6240000000000000    0.3880000000000005    0.4026000000000000 # F30
  1.0000000000000000    0.5000000000000000    0.8750999999999998 # F31
  0.9211000000000007    0.6717000000000005    0.7489999999999998 # F32
 -0.1120000000000002   -0.1240000000000000    0.0974000000000001 # F33
  0.5000000000000000    0.0000000000000000    0.3750999999999997 # F34
  0.4211000000000001    0.1716999999999999    0.2490000000000002 # F35
  0.3880000000000005    0.3759999999999999    0.5974000000000000 # F36
  1.0789000000000006    0.3283000000000001    0.7489999999999998 # F37
  0.1120000000000002    0.1240000000000000    0.0974000000000001 # F38
  0.5788999999999999   -0.1716999999999999    0.2490000000000002 # F39
  0.6120000000000002    0.6240000000000006    0.5974000000000000 # F40
