Al4
1.0
4.040539 0.000000 0.000000
0.000000 4.040539 0.000000
0.000000 0.000000 4.060741
Al
4
direct
0.000000 0.000000 0.000000 Al
0.500000 0.500000 0.000000 Al
0.500000 0.000000 0.500000 Al
0.000000 0.500000 0.500000 Al
