Ba1 Ti1 O3
1.0
4.011927 0.000000 0.000000
0.000000 4.011927 0.000000
0.000000 0.000000 4.154844
Ba Ti O
1 1 3
direct
0.000000 0.000000 0.014449 Ba
0.500000 0.500000 0.526835 Ti
0.000000 0.500000 0.495615 O
0.500000 0.000000 0.495615 O
0.500000 0.500000 0.981486 O
