System = PrO2
ALGO = Normal
EDIFF = 1e-08
EDIFFG = 1e-06
ENCUT = 600
IBRION = 2
POTIM = 0.01
NFREE = 4
ICHARG = 2
ISIF = 3
ISMEAR = 0
SIGMA = 0.01
ISPIN = 2
ISTART = 0
LAECHG = True
LCHARG = True
LORBIT = 11
LPEAD = False
LREAL = False
LVHAR = True
LWAVE = True
PREC = Accurate
GGA = PS
KPAR = 16

