Fe31                                    
   1.00000000000000     
     7.2671929999999998    0.0000000000000000    0.0000000000000000
     0.0000000000000000    7.2671929999999998    0.0000000000000000
     0.0000000000000000    0.0000000000000000    7.2671929999999998
   Fe
    31
Direct
 -0.0000580094672020  0.0112244834500398  0.4813941875144588
  0.9998330890839227  0.4814261190714589  0.0110752384150087
  0.9999206981748806  0.4916323634193456  0.4916565301359409
  0.4998937618282899  0.9936402533765278  0.9937329871339907
  0.4998506737501112  0.9938904121204450  0.5098512893683059
  0.4999549749918811  0.5100004148021822  0.9938600740621679
  0.4998926261804790  0.5066381401142703  0.5065806952966581
  0.9998894713614594  0.0547916633507365  0.0547655612924094
  0.9999186208899502  0.2433514901889038  0.7562422059302262
 -0.0001272338358847  0.7562837447179088  0.2433914589393539
 -0.0001061133941805  0.7650589522564324  0.7649579010356367
  0.4998882479697370  0.2611843678177963  0.2610485748894578
  0.4998925044547405  0.2566614931702266  0.7396601284753138
  0.4999092293003682  0.7396537950737527  0.2566333255813856
  0.4999074314280254  0.7479273485007009  0.7478565619107885
  0.2682867879190029  0.0040717184565875  0.2533488444579624
  0.2416586193423344  0.0049044534030299  0.7543672422685448
  0.2431119514270389  0.4956741589392386  0.2494844628054622
  0.2335035471094219  0.5015140052732487  0.7512709395196874
  0.7314931329874428  0.0040834454032391  0.2534301572194201
  0.7581376355622140  0.0049264152121204  0.7542959540331486
  0.7566692597236164  0.4956409377737468  0.2495421249837867
  0.7663038546746278  0.5014867871260125  0.7512230077766587
  0.2683278086241923  0.2533832906402762  0.0038923783845792
  0.2432380907588985  0.2496594984554981  0.4957332699125587
  0.2415777021396862  0.7544140717880505  0.0049825229943091
  0.2334919412729823  0.7512187395710118  0.5013476866689021
  0.7314566096977059  0.2533030036975301  0.0038918736080875
  0.7565795568280723  0.2496301947691027  0.4957444786566327
  0.7582149187680904  0.7544774146574325  0.0049696865781878
  0.7663051540664492  0.7512348590477559  0.5013609084091963
 
  0.00000000E+00  0.00000000E+00  0.00000000E+00
  0.00000000E+00  0.00000000E+00  0.00000000E+00
  0.00000000E+00  0.00000000E+00  0.00000000E+00
  0.00000000E+00  0.00000000E+00  0.00000000E+00
  0.00000000E+00  0.00000000E+00  0.00000000E+00
  0.00000000E+00  0.00000000E+00  0.00000000E+00
  0.00000000E+00  0.00000000E+00  0.00000000E+00
  0.00000000E+00  0.00000000E+00  0.00000000E+00
  0.00000000E+00  0.00000000E+00  0.00000000E+00
  0.00000000E+00  0.00000000E+00  0.00000000E+00
  0.00000000E+00  0.00000000E+00  0.00000000E+00
  0.00000000E+00  0.00000000E+00  0.00000000E+00
  0.00000000E+00  0.00000000E+00  0.00000000E+00
  0.00000000E+00  0.00000000E+00  0.00000000E+00
  0.00000000E+00  0.00000000E+00  0.00000000E+00
  0.00000000E+00  0.00000000E+00  0.00000000E+00
  0.00000000E+00  0.00000000E+00  0.00000000E+00
  0.00000000E+00  0.00000000E+00  0.00000000E+00
  0.00000000E+00  0.00000000E+00  0.00000000E+00
  0.00000000E+00  0.00000000E+00  0.00000000E+00
  0.00000000E+00  0.00000000E+00  0.00000000E+00
  0.00000000E+00  0.00000000E+00  0.00000000E+00
  0.00000000E+00  0.00000000E+00  0.00000000E+00
  0.00000000E+00  0.00000000E+00  0.00000000E+00
  0.00000000E+00  0.00000000E+00  0.00000000E+00
  0.00000000E+00  0.00000000E+00  0.00000000E+00
  0.00000000E+00  0.00000000E+00  0.00000000E+00
  0.00000000E+00  0.00000000E+00  0.00000000E+00
  0.00000000E+00  0.00000000E+00  0.00000000E+00
  0.00000000E+00  0.00000000E+00  0.00000000E+00
  0.00000000E+00  0.00000000E+00  0.00000000E+00
