POSCAR generated by cell class
1.0
  4.0469980957174512    0.0000000000000000    0.0000000000000000
 -2.0234990478587247    3.5048031599585601    0.0000000000000000
  0.0000000000000000    0.0000000000000000    5.3299974920123603
 1 2
Direct
  0.0000000000000000    0.0000000000000000    0.0000000000000000 # 11
  0.3333333333333333    0.6666666666666666    0.4320000000000000 # 21
  0.6666666666666666    0.3333333333333333    0.5679999999999999 # 22
