POSCAR generated by cell class
1.0
 12.1899942640958123    0.0000000000000000    0.0000000000000000
 -6.0949971320479035   10.5568447046935674    0.0000000000000000
  0.0000000000000000    0.0000000000000000   10.1399952287064394
 12 6 18 54
Direct
  0.0015000000000000    0.3353000000000000    0.4300000000000001 # 11
  0.9984999999999999    0.6647000000000000    0.5700000000000000 # 12
  0.6647000000000000    0.6662000000000000    0.4300000000000001 # 13
  0.3353000000000000    0.3338000000000000    0.5700000000000000 # 14
  0.3338000000000000    0.9984999999999999    0.4300000000000001 # 15
  0.6662000000000000    0.0015000000000000    0.5700000000000000 # 16
  0.6662000000000000    0.6647000000000000    0.0700000000000000 # 17
  0.3338000000000000    0.3353000000000000    0.9299999999999999 # 18
  0.9984999999999999    0.3338000000000000    0.0700000000000000 # 19
  0.0015000000000000    0.6662000000000000    0.9299999999999999 # 110
  0.3353000000000000    0.0015000000000000    0.0700000000000000 # 111
  0.6647000000000000    0.9984999999999999    0.9299999999999999 # 112
  0.0000000000000000    0.0000000000000000    0.0000000000000000 # 21
  0.3333333333333333    0.6666666666666666    0.4733000000000000 # 22
  0.6666666666666666    0.3333333333333333    0.5266999999999999 # 23
  0.0000000000000000    0.0000000000000000    0.5000000000000000 # 24
  0.6666666666666666    0.3333333333333333    0.0267000000000000 # 25
  0.3333333333333333    0.6666666666666666    0.9732999999999999 # 26
  0.0000000000000000    0.1790000000000000    0.7500000000000000 # 31
  0.1481000000000000    0.4802000000000000    0.7235000000000000 # 32
  0.0000000000000000    0.8210000000000000    0.2500000000000000 # 33
  0.8519000000000000    0.5198000000000002    0.2765000000000001 # 34
  0.8210000000000000    0.8210000000000000    0.7500000000000000 # 35
  0.5198000000000002    0.6679000000000002    0.7235000000000000 # 36
  0.1790000000000000    0.1790000000000000    0.2500000000000000 # 37
  0.4802000000000000    0.3321000000000000    0.2765000000000001 # 38
  0.1790000000000000    0.0000000000000000    0.7500000000000000 # 39
  0.3321000000000000    0.8519000000000000    0.7235000000000000 # 310
  0.8210000000000000    0.0000000000000000    0.2500000000000000 # 311
  0.6679000000000002    0.1481000000000000    0.2765000000000001 # 312
  0.6679000000000002    0.5198000000000002    0.7765000000000000 # 313
  0.3321000000000000    0.4802000000000000    0.2235000000000000 # 314
  0.8519000000000000    0.3321000000000000    0.7765000000000000 # 315
  0.1481000000000000    0.6679000000000002    0.2235000000000000 # 316
  0.4802000000000000    0.1481000000000000    0.7765000000000000 # 317
  0.5198000000000002    0.8519000000000000    0.2235000000000000 # 318
  0.0000000000000000    0.4562000000000000    0.7500000000000000 # 41
  0.0692000000000000    0.1518000000000000    0.8822000000000000 # 42
  0.1134000000000000    0.3233000000000000    0.6725000000000000 # 43
  0.2468000000000000    0.5161000000000000    0.8637000000000000 # 44
  0.1881000000000000    0.5731000000000002    0.5823000000000002 # 45
  0.0000000000000000    0.5438000000000000    0.2500000000000000 # 46
  0.9308000000000000    0.8482000000000000    0.1178000000000000 # 47
  0.8866000000000002    0.6767000000000000    0.3275000000000000 # 48
  0.7532000000000000    0.4839000000000000    0.1363000000000000 # 49
  0.8119000000000000    0.4269000000000000    0.4177000000000000 # 410
  0.5438000000000000    0.5438000000000000    0.7500000000000000 # 411
  0.8482000000000000    0.9174000000000000    0.8822000000000000 # 412
  0.6767000000000000    0.7901000000000000    0.6725000000000000 # 413
  0.4839000000000000    0.7307000000000000    0.8637000000000000 # 414
  0.4269000000000000    0.6150000000000000    0.5823000000000002 # 415
  0.4562000000000000    0.4562000000000000    0.2500000000000000 # 416
  0.1518000000000000    0.0826000000000000    0.1178000000000000 # 417
  0.3233000000000000    0.2099000000000000    0.3275000000000000 # 418
  0.5161000000000000    0.2693000000000000    0.1363000000000000 # 419
  0.5731000000000002    0.3850000000000000    0.4177000000000000 # 420
  0.4562000000000000    0.0000000000000000    0.7500000000000000 # 421
  0.0826000000000000    0.9308000000000000    0.8822000000000000 # 422
  0.2099000000000000    0.8866000000000002    0.6725000000000000 # 423
  0.2693000000000000    0.7532000000000000    0.8637000000000000 # 424
  0.3850000000000000    0.8119000000000000    0.5823000000000002 # 425
  0.5438000000000000    0.0000000000000000    0.2500000000000000 # 426
  0.9174000000000000    0.0692000000000000    0.1178000000000000 # 427
  0.7901000000000000    0.1134000000000000    0.3275000000000000 # 428
  0.7307000000000000    0.2468000000000000    0.1363000000000000 # 429
  0.6150000000000000    0.1881000000000000    0.4177000000000000 # 430
  0.9174000000000000    0.8482000000000000    0.6178000000000000 # 431
  0.7901000000000000    0.6767000000000000    0.8275000000000000 # 432
  0.7307000000000000    0.4839000000000000    0.6363000000000000 # 433
  0.6150000000000000    0.4269000000000000    0.9177000000000000 # 434
  0.0826000000000000    0.1518000000000000    0.3822000000000000 # 435
  0.2099000000000000    0.3233000000000000    0.1725000000000000 # 436
  0.2693000000000000    0.5161000000000000    0.3637000000000001 # 437
  0.3850000000000000    0.5731000000000002    0.0823000000000000 # 438
  0.9308000000000000    0.0826000000000000    0.6178000000000000 # 439
  0.8866000000000002    0.2099000000000000    0.8275000000000000 # 440
  0.7532000000000000    0.2693000000000000    0.6363000000000000 # 441
  0.8119000000000000    0.3850000000000000    0.9177000000000000 # 442
  0.0692000000000000    0.9174000000000000    0.3822000000000000 # 443
  0.1134000000000000    0.7901000000000000    0.1725000000000000 # 444
  0.2468000000000000    0.7307000000000000    0.3637000000000001 # 445
  0.1881000000000000    0.6150000000000000    0.0823000000000000 # 446
  0.1518000000000000    0.0692000000000000    0.6178000000000000 # 447
  0.3233000000000000    0.1134000000000000    0.8275000000000000 # 448
  0.5161000000000000    0.2468000000000000    0.6363000000000000 # 449
  0.5731000000000002    0.1881000000000000    0.9177000000000000 # 450
  0.8482000000000000    0.9308000000000000    0.3822000000000000 # 451
  0.6767000000000000    0.8866000000000002    0.1725000000000000 # 452
  0.4839000000000000    0.7532000000000000    0.3637000000000001 # 453
  0.4269000000000000    0.8119000000000000    0.0823000000000000 # 454
