POSCAR generated by cell class
1.0
  6.2429970624077198    0.0000000000000000    0.0000000000000000
 -3.1214985312038586    5.4065940517967102    0.0000000000000000
  0.0000000000000000    0.0000000000000000   29.9999858837468700
 6 6 12 36
Direct
  0.0000000000000000    0.0000000000000000    0.0000000000000000 # 11
  0.0000000000000000    0.0000000000000000    0.5000000000000000 # 12
  0.6666666666666666    0.3333333333333333    0.3333333333333333 # 13
  0.6666666666666666    0.3333333333333333    0.8333333333333334 # 14
  0.3333333333333333    0.6666666666666666    0.6666666666666667 # 15
  0.3333333333333333    0.6666666666666666    0.1666666666666667 # 16
  0.0000000000000000    0.0000000000000000    0.4023000000000000 # 21
  0.6666666666666666    0.3333333333333333    0.7356333333333334 # 22
  0.3333333333333333    0.6666666666666666    0.0689666666666667 # 23
  0.0000000000000000    0.0000000000000000    0.5977000000000000 # 24
  0.6666666666666666    0.3333333333333333    0.9310333333333334 # 25
  0.3333333333333333    0.6666666666666666    0.2643666666666668 # 26
  0.0000000000000000    0.0000000000000000    0.1280000000000000 # 31
  0.0000000000000000    0.0000000000000000    0.2811000000000000 # 32
  0.6666666666666666    0.3333333333333333    0.4613333333333334 # 33
  0.6666666666666666    0.3333333333333333    0.6144333333333334 # 34
  0.3333333333333333    0.6666666666666666    0.7946666666666666 # 35
  0.3333333333333333    0.6666666666666666    0.9477666666666665 # 36
  0.0000000000000000    0.0000000000000000    0.8720000000000000 # 37
  0.0000000000000000    0.0000000000000000    0.7189000000000000 # 38
  0.3333333333333333    0.6666666666666666    0.5386666666666666 # 39
  0.6666666666666666    0.3333333333333333    0.2053333333333333 # 310
  0.6666666666666666    0.3333333333333333    0.0522333333333333 # 311
  0.3333333333333333    0.6666666666666666    0.3855666666666668 # 312
  0.1411500000000000    0.8588500000000000    0.4620000000000002 # 41
  0.1881000000000000    0.8119000000000000    0.6309000000000000 # 42
  0.8078166666666666    0.1921833333333334    0.7953333333333333 # 43
  0.8547666666666668    0.1452333333333334    0.9642333333333334 # 44
  0.4744833333333334    0.5255166666666666    0.1286666666666667 # 45
  0.5214333333333334    0.4785666666666668    0.2975666666666667 # 46
  0.8588500000000000    0.1411500000000000    0.5380000000000000 # 47
  0.8119000000000002    0.1881000000000000    0.3691000000000000 # 48
  0.5255166666666666    0.4744833333333334    0.8713333333333334 # 49
  0.4785666666666668    0.5214333333333334    0.7024333333333334 # 410
  0.1921833333333334    0.8078166666666666    0.2046666666666667 # 411
  0.1452333333333334    0.8547666666666668    0.0357666666666666 # 412
  0.1411500000000000    0.2823000000000000    0.4620000000000002 # 413
  0.1881000000000000    0.3762000000000000    0.6309000000000000 # 414
  0.8078166666666666    0.6156333333333334    0.7953333333333333 # 415
  0.8547666666666668    0.7095333333333333    0.9642333333333334 # 416
  0.4744833333333334    0.9489666666666666    0.1286666666666667 # 417
  0.5214333333333334    0.0428666666666667    0.2975666666666667 # 418
  0.8588500000000000    0.7177000000000000    0.5380000000000000 # 419
  0.8119000000000000    0.6238000000000000    0.3691000000000000 # 420
  0.5255166666666666    0.0510333333333333    0.8713333333333334 # 421
  0.4785666666666668    0.9571333333333334    0.7024333333333334 # 422
  0.1921833333333334    0.3843666666666667    0.2046666666666667 # 423
  0.1452333333333334    0.2904666666666667    0.0357666666666666 # 424
  0.7177000000000000    0.8588500000000000    0.4620000000000002 # 425
  0.6238000000000000    0.8119000000000002    0.6309000000000000 # 426
  0.3843666666666667    0.1921833333333334    0.7953333333333333 # 427
  0.2904666666666667    0.1452333333333334    0.9642333333333334 # 428
  0.0510333333333333    0.5255166666666666    0.1286666666666667 # 429
  0.9571333333333334    0.4785666666666668    0.2975666666666667 # 430
  0.2823000000000000    0.1411500000000000    0.5380000000000000 # 431
  0.3762000000000000    0.1881000000000000    0.3691000000000000 # 432
  0.9489666666666666    0.4744833333333334    0.8713333333333334 # 433
  0.0428666666666667    0.5214333333333334    0.7024333333333334 # 434
  0.6156333333333334    0.8078166666666666    0.2046666666666667 # 435
  0.7095333333333333    0.8547666666666668    0.0357666666666666 # 436
