$cell vectors
1.0
  9.1229957072474228    0.0000000000000000    0.0000000000000000
 -4.5614978536237070    7.9007460410926491    0.0000000000000000
  0.0000000000000000    0.0000000000000000   16.9829920087891040
 9 9 63
Direct
  0.2601000000000002    0.0000000000000000    0.5000000000000000 # Sn1
  0.9267666666666667    0.3333333333333334    0.8333333333333331 # Sn2
  0.5934333333333327    0.6666666666666667    0.1666666666666666 # Sn3
 -0.0000000000000002    0.2601000000000000    0.5000000000000000 # Sn4
  0.6666666666666667    0.5934333333333333    0.8333333333333331 # Sn5
  0.3333333333333327    0.9267666666666666    0.1666666666666666 # Sn6
 -0.2601000000000000   -0.2601000000000000    0.5000000000000000 # Sn7
  0.4065666666666665    0.0732333333333334    0.8333333333333331 # Sn8
  0.0732333333333330    0.4065666666666667    0.1666666666666666 # Sn9
  0.0000000000000000    0.0000000000000000    0.0000000000000000 # As1
  0.0000000000000000    0.0000000000000000    0.2989000000000001 # As2
  0.6666666666666665    0.3333333333333334    0.3333333333333331 # As3
  0.6666666666666665    0.3333333333333334    0.6322333333333332 # As4
  0.3333333333333330    0.6666666666666667    0.6666666666666665 # As5
  0.3333333333333330    0.6666666666666667    0.9655666666666668 # As6
  0.0000000000000000    0.0000000000000000    0.7010999999999999 # As7
  0.6666666666666665    0.3333333333333334    0.0344333333333334 # As8
  0.3333333333333330    0.6666666666666667    0.3677666666666665 # As9
  0.0850999999999999    0.1730000000000003    0.0591999999999999 # F1
  0.1537999999999997    0.1511999999999998    0.2414000000000001 # F2
  0.0039000000000000    0.1558000000000004    0.3588000000000002 # F3
  0.1760000000000001    0.1759999999999999    0.5000000000000000 # F4
  0.7517666666666665    0.5063333333333336    0.3925333333333333 # F5
  0.8204666666666662    0.4845333333333332    0.5747333333333333 # F6
  0.6705666666666662    0.4891333333333330    0.6921333333333333 # F7
  0.8426666666666667    0.5093333333333333    0.8333333333333331 # F8
  0.4184333333333332    0.8396666666666663    0.7258666666666664 # F9
  0.4871333333333333    0.8178666666666665    0.9080666666666667 # F10
  0.3372333333333336    0.8224666666666670    1.0254666666666667 # F11
  0.5093333333333331    0.8426666666666666    0.1666666666666666 # F12
 -0.1729999999999997   -0.0878999999999998    0.0591999999999999 # F13
 -0.1511999999999998    0.0026000000000002    0.2414000000000001 # F14
 -0.1557999999999999   -0.1519000000000001    0.3588000000000002 # F15
 -0.1759999999999999    0.0000000000000000    0.5000000000000000 # F16
  0.4936666666666668    0.2454333333333336    0.3925333333333333 # F17
  0.5154666666666667    0.3359333333333335    0.5747333333333333 # F18
  0.5108666666666666    0.1814333333333332    0.6921333333333333 # F19
  0.4906666666666666    0.3333333333333334    0.8333333333333331 # F20
  0.1603333333333333    0.5787666666666669    0.7258666666666664 # F21
  0.1821333333333331    0.6692666666666669    0.9080666666666667 # F22
  0.1775333333333330    0.5147666666666666    1.0254666666666667 # F23
  0.1573333333333331    0.6666666666666667    0.1666666666666666 # F24
  0.0879000000000001   -0.0850999999999999    0.0591999999999999 # F25
 -0.0025999999999999   -0.1538000000000000    0.2414000000000001 # F26
  0.1519000000000000   -0.0039000000000003    0.3588000000000002 # F27
  0.0000000000000004   -0.1759999999999999    0.5000000000000000 # F28
  0.7545666666666666    0.2482333333333334    0.3925333333333333 # F29
  0.6640666666666666    0.1795333333333334    0.5747333333333333 # F30
  0.8185666666666666    0.3294333333333331    0.6921333333333333 # F31
  0.6666666666666670    0.1573333333333334    0.8333333333333331 # F32
  0.4212333333333331    0.5815666666666669    0.7258666666666664 # F33
  0.3307333333333331    0.5128666666666667    0.9080666666666667 # F34
  0.4852333333333333    0.6627666666666672    1.0254666666666667 # F35
  0.3333333333333334    0.4906666666666668    0.1666666666666666 # F36
 -0.0879000000000002   -0.1730000000000003   -0.0591999999999999 # F37
  0.0026000000000001   -0.1511999999999998    0.7586000000000001 # F38
 -0.1519000000000002   -0.1558000000000004    0.6411999999999999 # F39
  0.5787666666666667    0.1603333333333337    0.2741333333333332 # F40
  0.6692666666666666    0.1821333333333335    0.0919333333333333 # F41
  0.5147666666666667    0.1775333333333337   -0.0254666666666667 # F42
  0.2454333333333331    0.4936666666666670    0.6074666666666667 # F43
  0.3359333333333331    0.5154666666666670    0.4252666666666668 # F44
  0.1814333333333332    0.5108666666666670    0.3078666666666668 # F45
 -0.0851000000000001    0.0878999999999998   -0.0591999999999999 # F46
 -0.1538000000000000   -0.0026000000000002    0.7586000000000001 # F47
 -0.0039000000000000    0.1519000000000001    0.6411999999999999 # F48
  0.5815666666666665    0.4212333333333331    0.2741333333333332 # F49
  0.5128666666666665    0.3307333333333332    0.0919333333333333 # F50
  0.6627666666666665    0.4852333333333335   -0.0254666666666667 # F51
  0.2482333333333329    0.7545666666666664    0.6074666666666667 # F52
  0.1795333333333330    0.6640666666666666    0.4252666666666668 # F53
  0.3294333333333329    0.8185666666666668    0.3078666666666668 # F54
  0.1729999999999999    0.0850999999999999   -0.0591999999999999 # F55
  0.1511999999999999    0.1538000000000000    0.7586000000000001 # F56
  0.1558000000000002    0.0039000000000003    0.6411999999999999 # F57
  0.8396666666666665    0.4184333333333333    0.2741333333333332 # F58
  0.8178666666666664    0.4871333333333333    0.0919333333333333 # F59
  0.8224666666666668    0.3372333333333337   -0.0254666666666667 # F60
  0.5063333333333329    0.7517666666666666    0.6074666666666667 # F61
  0.4845333333333329    0.8204666666666667    0.4252666666666668 # F62
  0.4891333333333332    0.6705666666666669    0.3078666666666668 # F63
