$cell vectors
1.0
  5.1599975720044595    0.0000000000000000    0.0000000000000000
 -2.5799987860022298    4.4686889808218870    0.0000000000000000
  0.0000000000000000    0.0000000000000000   16.5799921984174325
 6 18 6
Direct
  0.0000000000000000    0.0000000000000000    0.0000000000000000 # Ag1
  0.6666666666666669    0.3333333333333337    0.3333333333333334 # Ag2
  0.3333333333333331    0.6666666666666662    0.6666666666666669 # Ag3
  0.0000000000000000    0.0000000000000000    0.5000000000000000 # Ag4
  0.6666666666666669    0.3333333333333337    0.8333333333333335 # Ag5
  0.3333333333333331    0.6666666666666662    0.1666666666666665 # Ag6
  0.2748000000000003    0.1990000000000001    0.2208000000000000 # O1
  0.9414666666666670    0.5323333333333338    0.5541333333333335 # O2
  0.6081333333333334    0.8656666666666663    0.8874666666666668 # O3
  0.8010000000000008    0.0758000000000001    0.2208000000000000 # O4
  0.4676666666666668    0.4091333333333337    0.5541333333333335 # O5
  0.1343333333333330    0.7424666666666662    0.8874666666666668 # O6
  0.9242000000000006    0.7251999999999997    0.2208000000000000 # O7
  0.5908666666666674    0.0585333333333335    0.5541333333333335 # O8
  0.2575333333333338    0.3918666666666660    0.8874666666666668 # O9
  0.9242000000000007    0.1990000000000001    0.7208000000000003 # O10
  0.5908666666666675    0.5323333333333338    0.0541333333333334 # O11
  0.2575333333333339    0.8656666666666663    0.3874666666666665 # O12
  0.2748000000000001    0.0758000000000001    0.7208000000000003 # O13
  0.9414666666666669    0.4091333333333337    0.0541333333333334 # O14
  0.6081333333333332    0.7424666666666662    0.3874666666666665 # O15
  0.8009999999999999    0.7251999999999997    0.7208000000000003 # O16
  0.4676666666666668    0.0585333333333335    0.0541333333333334 # O17
  0.1343333333333338    0.3918666666666672    0.3874666666666665 # O18
  0.0000000000000000    0.0000000000000000    0.2244999999999999 # N1
  0.6666666666666669    0.3333333333333337    0.5578333333333334 # N2
  0.3333333333333331    0.6666666666666662    0.8911666666666668 # N3
  0.0000000000000000    0.0000000000000000    0.7245000000000003 # N4
  0.6666666666666669    0.3333333333333337    0.0578333333333334 # N5
  0.3333333333333331    0.6666666666666662    0.3911666666666668 # N6
