$cell vectors
1.0
 11.5099945840642164    0.0000000000000000    0.0000000000000000
 -5.7549972920321055    9.9679477072209135    0.0000000000000000
  0.0000000000000053    0.0000000000000000   60.5699714992849252
 36 72 72 84
Direct
  0.8448999999999998    0.1537000000000002    0.1990000000000000 # K1
  0.5115666666666667    0.4870333333333334    0.5323333333333333 # K2
  0.1782333333333329    0.8203666666666667    0.8656666666666667 # K3
  0.1550999999999998    0.8462999999999998    0.8009999999999999 # K4
  0.8217666666666666    0.1796333333333335    0.1343333333333333 # K5
  0.4884333333333332    0.5129666666666667    0.4676666666666666 # K6
  0.8462999999999999    0.6912000000000000    0.1990000000000000 # K7
  0.5129666666666665    0.0245333333333332    0.5323333333333333 # K8
  0.1796333333333334    0.3578666666666669    0.8656666666666667 # K9
  0.1537000000000000    0.3088000000000000    0.8009999999999999 # K10
  0.8203666666666665    0.6421333333333332    0.1343333333333333 # K11
  0.4870333333333334    0.9754666666666668    0.4676666666666666 # K12
  0.3087999999999999    0.1551000000000003    0.1990000000000000 # K13
  0.9754666666666663    0.4884333333333334    0.5323333333333333 # K14
  0.6421333333333329    0.8217666666666665    0.8656666666666667 # K15
  0.6911999999999999    0.8449000000000002    0.8009999999999999 # K16
  0.3578666666666665    0.1782333333333334    0.1343333333333333 # K17
  0.0245333333333330    0.5115666666666665    0.4676666666666666 # K18
  0.6911999999999999    0.8462999999999998    0.3009999999999999 # K19
  0.3578666666666668    0.1796333333333335    0.6343333333333333 # K20
  0.0245333333333334    0.5129666666666667    0.9676666666666668 # K21
  0.3088000000000000    0.1537000000000002    0.6990000000000001 # K22
  0.9754666666666667    0.4870333333333334    0.0323333333333333 # K23
  0.6421333333333332    0.8203666666666667    0.3656666666666667 # K24
  0.1550999999999997    0.3088000000000000    0.3009999999999999 # K25
  0.8217666666666666    0.6421333333333332    0.6343333333333333 # K26
  0.4884333333333331    0.9754666666666668    0.9676666666666668 # K27
  0.8448999999999997    0.6912000000000000    0.6990000000000001 # K28
  0.5115666666666663    0.0245333333333332    0.0323333333333333 # K29
  0.1782333333333332    0.3578666666666669    0.3656666666666667 # K30
  0.1537000000000003    0.8449000000000002    0.3009999999999999 # K31
  0.8203666666666662    0.1782333333333334    0.6343333333333333 # K32
  0.4870333333333329    0.5115666666666665    0.9676666666666668 # K33
  0.8462999999999999    0.1551000000000003    0.6990000000000001 # K34
  0.5129666666666665    0.4884333333333334    0.0323333333333333 # K35
  0.1796333333333330    0.8217666666666665    0.3656666666666667 # K36
  0.1710000000000001    1.0981000000000005    0.0361000000000000 # P1
  0.1032000000000002    1.2688000000000001    0.0094000000000001 # P2
  0.8376666666666667    0.4314333333333336    0.3694333333333333 # P3
  0.7698666666666668    0.6021333333333334    0.3427333333333333 # P4
  0.5043333333333334    0.7647666666666669    0.7027666666666669 # P5
  0.4365333333333329    0.9354666666666666    0.6760666666666667 # P6
 -0.1710000000000000    0.9019000000000000   -0.0361000000000000 # P7
 -0.1032000000000002    0.7311999999999999   -0.0093999999999999 # P8
  0.4956666666666666    0.2352333333333332    0.2972333333333333 # P9
  0.5634666666666667    0.0645333333333335    0.3239333333333333 # P10
  0.1623333333333335    0.5685666666666670    0.6305666666666668 # P11
  0.2301333333333332    0.3978666666666666    0.6572666666666668 # P12
 -0.0981000000000001    1.0729000000000002    0.0361000000000000 # P13
 -0.2687999999999997    0.8344000000000003    0.0094000000000001 # P14
  0.5685666666666662    0.4062333333333332    0.3694333333333333 # P15
  0.3978666666666664    0.1677333333333333    0.3427333333333333 # P16
  0.2352333333333332    0.7395666666666669    0.7027666666666669 # P17
  0.0645333333333333    0.5010666666666670    0.6760666666666667 # P18
  0.0981000000000002    0.9271000000000000   -0.0361000000000000 # P19
  0.2687999999999997    1.1656000000000000   -0.0093999999999999 # P20
  0.7647666666666663    0.2604333333333331    0.2972333333333333 # P21
  0.9354666666666667    0.4989333333333337    0.3239333333333333 # P22
  0.4314333333333331    0.5937666666666668    0.6305666666666668 # P23
  0.6021333333333331    0.8322666666666668    0.6572666666666668 # P24
 -0.0728999999999999    0.8290000000000001    0.0361000000000000 # P25
  0.1656000000000001    0.8968000000000003    0.0094000000000001 # P26
  0.5937666666666662    0.1623333333333332    0.3694333333333333 # P27
  0.8322666666666668    0.2301333333333333    0.3427333333333333 # P28
  0.2604333333333331    0.4956666666666668    0.7027666666666669 # P29
  0.4989333333333332    0.5634666666666664    0.6760666666666667 # P30
  0.0729000000000004    1.1710000000000003   -0.0361000000000000 # P31
 -0.1655999999999997    1.1031999999999997   -0.0093999999999999 # P32
  0.7395666666666664    0.5043333333333332    0.2972333333333333 # P33
  0.5010666666666668    0.4365333333333336    0.3239333333333333 # P34
  0.4062333333333332    0.8376666666666668    0.6305666666666668 # P35
  0.1677333333333332    0.7698666666666667    0.6572666666666668 # P36
  0.0728999999999999   -0.0980999999999999    0.4639000000000000 # P37
 -0.1655999999999998   -0.2687999999999997    0.4906000000000001 # P38
  0.7395666666666664    0.2352333333333332    0.7972333333333335 # P39
  0.5010666666666668    0.0645333333333335    0.8239333333333335 # P40
  0.4062333333333333    0.5685666666666670    0.1305666666666667 # P41
  0.1677333333333333    0.3978666666666666    0.1572666666666666 # P42
 -0.0729000000000004    0.0980999999999999    0.5361000000000000 # P43
  0.1655999999999998    0.2687999999999997    0.5094000000000001 # P44
  0.5937666666666664    0.4314333333333336    0.8694333333333333 # P45
  0.8322666666666666    0.6021333333333334    0.8427333333333334 # P46
  0.2604333333333335    0.7647666666666669    0.2027666666666666 # P47
  0.4989333333333332    0.9354666666666666    0.1760666666666667 # P48
 -0.1710000000000000   -0.0729000000000001    0.4639000000000000 # P49
 -0.1032000000000002    0.1655999999999999    0.4906000000000001 # P50
  0.4956666666666666    0.2604333333333331    0.7972333333333335 # P51
  0.5634666666666668    0.4989333333333337    0.8239333333333335 # P52
  0.1623333333333334    0.5937666666666668    0.1305666666666667 # P53
  0.2301333333333332    0.8322666666666668    0.1572666666666666 # P54
  0.1709999999999999    0.0729000000000001    0.5361000000000000 # P55
  0.1032000000000002   -0.1655999999999999    0.5094000000000001 # P56
  0.8376666666666664    0.4062333333333332    0.8694333333333333 # P57
  0.7698666666666668    0.1677333333333333    0.8427333333333334 # P58
  0.5043333333333333    0.7395666666666669    0.2027666666666666 # P59
  0.4365333333333336    0.5010666666666670    0.1760666666666667 # P60
  0.0980999999999999    0.1710000000000000    0.4639000000000000 # P61
  0.2687999999999998    0.1031999999999999    0.4906000000000001 # P62
  0.7647666666666665    0.5043333333333332    0.7972333333333335 # P63
  0.9354666666666667    0.4365333333333336    0.8239333333333335 # P64
  0.4314333333333332    0.8376666666666668    0.1305666666666667 # P65
  0.6021333333333331    0.7698666666666667    0.1572666666666666 # P66
 -0.0980999999999999   -0.1710000000000000    0.5361000000000000 # P67
 -0.2688000000000002   -0.1031999999999999    0.5094000000000001 # P68
  0.5685666666666661    0.1623333333333332    0.8694333333333333 # P69
  0.3978666666666664    0.2301333333333333    0.8427333333333334 # P70
  0.2352333333333335    0.4956666666666668    0.2027666666666666 # P71
  0.0645333333333334    0.5634666666666664    0.1760666666666667 # P72
  0.2541999999999998    1.2113000000000000    0.0616000000000001 # S1
  0.2188000000000001    1.4598000000000002    0.0040000000000000 # S2
  0.9208666666666663    0.5446333333333333    0.3949333333333333 # S3
  0.8854666666666665    0.7931333333333332    0.3373333333333333 # S4
  0.5875333333333331    0.8779666666666669    0.7282666666666668 # S5
  0.5521333333333334    1.1264666666666669    0.6706666666666667 # S6
 -0.2541999999999996    0.7887000000000001   -0.0616000000000000 # S7
 -0.2188000000000001    0.5401999999999999   -0.0040000000000000 # S8
  0.4124666666666663    0.1220333333333332    0.2717333333333334 # S9
  0.4478666666666665   -0.1264666666666669    0.3293333333333334 # S10
  0.0791333333333332    0.4553666666666669    0.6050666666666666 # S11
  0.1145333333333334    0.2068666666666668    0.6626666666666667 # S12
 -0.2113000000000000    1.0428999999999999    0.0616000000000001 # S13
 -0.4597999999999998    0.7590000000000003    0.0040000000000000 # S14
  0.4553666666666664    0.3762333333333331    0.3949333333333333 # S15
  0.2068666666666666    0.0923333333333333    0.3373333333333333 # S16
  0.1220333333333334    0.7095666666666669    0.7282666666666668 # S17
 -0.1264666666666668    0.4256666666666666    0.6706666666666667 # S18
  0.2113000000000001    0.9571000000000001   -0.0616000000000000 # S19
  0.4598000000000001    1.2410000000000003   -0.0040000000000000 # S20
  0.8779666666666668    0.2904333333333332    0.2717333333333334 # S21
  1.1264666666666667    0.5743333333333336    0.3293333333333334 # S22
  0.5446333333333330    0.6237666666666669    0.6050666666666666 # S23
  0.7931333333333331    0.9076666666666666    0.6626666666666667 # S24
 -0.0428999999999997    0.7458000000000001    0.0616000000000001 # S25
  0.2410000000000001    0.7812000000000003    0.0040000000000000 # S26
  0.6237666666666662    0.0791333333333332    0.3949333333333333 # S27
  0.9076666666666667    0.1145333333333334    0.3373333333333333 # S28
  0.2904333333333332    0.4124666666666669    0.7282666666666668 # S29
  0.5743333333333333    0.4478666666666666    0.6706666666666667 # S30
  0.0429000000000003    1.2542000000000002   -0.0616000000000000 # S31
 -0.2410000000000002    1.2187999999999997   -0.0040000000000000 # S32
  0.7095666666666668    0.5875333333333331    0.2717333333333334 # S33
  0.4256666666666667    0.5521333333333334    0.3293333333333334 # S34
  0.3762333333333333    0.9208666666666671    0.6050666666666666 # S35
  0.0923333333333333    0.8854666666666666    0.6626666666666667 # S36
  0.0429000000000002   -0.2113000000000000    0.4384000000000001 # S37
 -0.2410000000000001   -0.4598000000000002    0.4960000000000001 # S38
  0.7095666666666661    0.1220333333333332    0.7717333333333334 # S39
  0.4256666666666665   -0.1264666666666669    0.8293333333333334 # S40
  0.3762333333333336    0.4553666666666669    0.1050666666666667 # S41
  0.0923333333333333    0.2068666666666668    0.1626666666666667 # S42
 -0.0429000000000002    0.2113000000000000    0.5616000000000000 # S43
  0.2410000000000002    0.4598000000000002    0.5040000000000001 # S44
  0.6237666666666665    0.5446333333333333    0.8949333333333335 # S45
  0.9076666666666662    0.7931333333333332    0.8373333333333335 # S46
  0.2904333333333333    0.8779666666666669    0.2282666666666666 # S47
  0.5743333333333334    1.1264666666666669    0.1706666666666667 # S48
 -0.2542000000000003   -0.0429000000000000    0.4384000000000001 # S49
 -0.2187999999999997    0.2410000000000004    0.4960000000000001 # S50
  0.4124666666666663    0.2904333333333332    0.7717333333333334 # S51
  0.4478666666666664    0.5743333333333336    0.8293333333333334 # S52
  0.0791333333333337    0.6237666666666669    0.1050666666666667 # S53
  0.1145333333333334    0.9076666666666666    0.1626666666666667 # S54
  0.2541999999999998    0.0429000000000000    0.5616000000000000 # S55
  0.2187999999999999   -0.2409999999999999    0.5040000000000001 # S56
  0.9208666666666664    0.3762333333333331    0.8949333333333335 # S57
  0.8854666666666666    0.0923333333333333    0.8373333333333335 # S58
  0.5875333333333332    0.7095666666666669    0.2282666666666666 # S59
  0.5521333333333330    0.4256666666666666    0.1706666666666667 # S60
  0.2113000000000000    0.2542000000000000    0.4384000000000001 # S61
  0.4598000000000000    0.2187999999999998    0.4960000000000001 # S62
  0.8779666666666665    0.5875333333333331    0.7717333333333334 # S63
  1.1264666666666663    0.5521333333333334    0.8293333333333334 # S64
  0.5446333333333335    0.9208666666666671    0.1050666666666667 # S65
  0.7931333333333329    0.8854666666666666    0.1626666666666667 # S66
 -0.2113000000000000   -0.2542000000000000    0.5616000000000000 # S67
 -0.4598000000000000   -0.2187999999999998    0.5040000000000001 # S68
  0.4553666666666666    0.0791333333333332    0.8949333333333335 # S69
  0.2068666666666666    0.1145333333333334    0.8373333333333335 # S70
  0.1220333333333335    0.4124666666666669    0.2282666666666666 # S71
 -0.1264666666666664    0.4478666666666666    0.1706666666666667 # S72
  0.0000000000000000    1.0000000000000000    0.0382000000000000 # N1
  0.1874000000000002    1.1866000000000001    0.0124999999999999 # N2
  0.2217000000000001    0.9989999999999999    0.0299000000000000 # N3
  0.6666666666666665    0.3333333333333331    0.3715333333333334 # N4
  0.8540666666666666    0.5199333333333338    0.3458333333333333 # N5
  0.8883666666666667    0.3323333333333334    0.3632333333333334 # N6
  0.3333333333333334    0.6666666666666669    0.7048666666666669 # N7
  0.5207333333333330    0.8532666666666668    0.6791666666666667 # N8
  0.5550333333333329    0.6656666666666666    0.6965666666666668 # N9
  0.0000000000000000    1.0000000000000000   -0.0382000000000000 # N10
 -0.1873999999999996    0.8134000000000002   -0.0124999999999999 # N11
 -0.2216999999999995    1.0010000000000003   -0.0299000000000000 # N12
  0.6666666666666666    0.3333333333333331    0.2951333333333333 # N13
  0.4792666666666664    0.1467333333333332    0.3208333333333334 # N14
  0.4449666666666665    0.3343333333333334    0.3034333333333333 # N15
  0.1459333333333333    0.4800666666666669    0.6541666666666666 # N16
  0.1116333333333332    0.6676666666666666    0.6367666666666668 # N17
 -0.1865999999999995    1.0008000000000001    0.0124999999999999 # N18
  0.0009999999999999    1.2227000000000003    0.0299000000000000 # N19
  0.4800666666666664    0.3341333333333333    0.3458333333333333 # N20
  0.6676666666666664    0.5560333333333335    0.3632333333333334 # N21
  0.1467333333333331    0.6674666666666664    0.6791666666666667 # N22
  0.3343333333333330    0.8893666666666666    0.6965666666666668 # N23
  0.1866000000000000    0.9991999999999999   -0.0124999999999999 # N24
 -0.0009999999999997    0.7773000000000003   -0.0299000000000000 # N25
  0.8532666666666664    0.3325333333333335    0.3208333333333334 # N26
  0.6656666666666665    0.1106333333333334    0.3034333333333333 # N27
  0.5199333333333334    0.6658666666666667    0.6541666666666666 # N28
  0.3323333333333331    0.4439666666666666    0.6367666666666668 # N29
 -0.0008000000000003    0.8125999999999998    0.0124999999999999 # N30
 -0.2226999999999998    0.7783000000000000    0.0299000000000000 # N31
  0.6658666666666667    0.1459333333333336    0.3458333333333333 # N32
  0.4439666666666666    0.1116333333333332    0.3632333333333334 # N33
  0.3325333333333332    0.4792666666666667    0.6791666666666667 # N34
  0.1106333333333335    0.4449666666666669    0.6965666666666668 # N35
  0.0008000000000000    1.1874000000000000   -0.0124999999999999 # N36
  0.2227000000000003    1.2217000000000000   -0.0299000000000000 # N37
  0.6674666666666668    0.5207333333333334    0.3208333333333334 # N38
  0.8893666666666665    0.5550333333333332    0.3034333333333333 # N39
  0.3333333333333334    0.6666666666666669    0.6284666666666668 # N40
  0.3341333333333330    0.8540666666666669    0.6541666666666666 # N41
  0.5560333333333333    0.8883666666666669    0.6367666666666668 # N42
 -0.0000000000000002    0.0000000000000000    0.4618000000000000 # N43
  0.0008000000000000   -0.1866000000000000    0.4875000000000000 # N44
  0.2226999999999999    0.0009999999999998    0.4701000000000001 # N45
  0.6666666666666664    0.3333333333333331    0.7951333333333332 # N46
  0.6674666666666663    0.1467333333333332    0.8208333333333334 # N47
  0.8893666666666667    0.3343333333333334    0.8034333333333334 # N48
  0.3333333333333332    0.6666666666666669    0.1284666666666666 # N49
  0.3341333333333335    0.4800666666666669    0.1541666666666666 # N50
  0.5560333333333333    0.6676666666666666    0.1367666666666666 # N51
 -0.0000000000000002    0.0000000000000000    0.5382000000000000 # N52
 -0.0008000000000000    0.1866000000000000    0.5125000000000001 # N53
 -0.2226999999999998   -0.0009999999999998    0.5299000000000000 # N54
  0.6666666666666663    0.3333333333333331    0.8715333333333334 # N55
  0.6658666666666668    0.5199333333333338    0.8458333333333335 # N56
  0.4439666666666667    0.3323333333333334    0.8632333333333334 # N57
  0.3333333333333331    0.6666666666666669    0.2048666666666667 # N58
  0.3325333333333333    0.8532666666666668    0.1791666666666667 # N59
  0.1106333333333333    0.6656666666666666    0.1965666666666667 # N60
 -0.1873999999999999   -0.0008000000000001    0.4875000000000000 # N61
 -0.2217000000000001   -0.2227000000000003    0.4701000000000001 # N62
  0.4792666666666663    0.3325333333333335    0.8208333333333334 # N63
  0.4449666666666663    0.1106333333333334    0.8034333333333334 # N64
  0.1459333333333335    0.6658666666666667    0.1541666666666666 # N65
  0.1116333333333333    0.4439666666666666    0.1367666666666666 # N66
  0.1874000000000000    0.0008000000000001    0.5125000000000001 # N67
  0.2217000000000000    0.2227000000000003    0.5299000000000000 # N68
  0.8540666666666663    0.3341333333333333    0.8458333333333335 # N69
  0.8883666666666665    0.5560333333333335    0.8632333333333334 # N70
  0.5207333333333330    0.6674666666666664    0.1791666666666667 # N71
  0.5550333333333332    0.8893666666666666    0.1965666666666667 # N72
  0.1866000000000002    0.1874000000000001    0.4875000000000000 # N73
 -0.0010000000000003    0.2217000000000000    0.4701000000000001 # N74
  0.8532666666666663    0.5207333333333334    0.8208333333333334 # N75
  0.6656666666666663    0.5550333333333332    0.8034333333333334 # N76
  0.5199333333333334    0.8540666666666669    0.1541666666666666 # N77
  0.3323333333333331    0.8883666666666669    0.1367666666666666 # N78
 -0.1866000000000001   -0.1874000000000001    0.5125000000000001 # N79
  0.0009999999999998   -0.2217000000000000    0.5299000000000000 # N80
  0.4800666666666667    0.1459333333333336    0.8458333333333335 # N81
  0.6676666666666663    0.1116333333333332    0.8632333333333334 # N82
  0.1467333333333333    0.4792666666666667    0.1791666666666667 # N83
  0.3343333333333332    0.4449666666666669    0.1965666666666667 # N84
