$cell vectors
1.0
 10.8369949007388264    0.0000000000000000    0.0000000000000000
 -5.4184974503694106    9.3851128847222434    0.0000000000000000
  0.0000000000000000    0.0000000000000000    8.1569961617907758
 3 27 9 54
Direct
  1.0000000000000000    0.0000000000000000    1.0000000000000000 # Cr1
  0.6666666666666669    0.3333333333333336    0.3333333333333331 # Cr2
  0.3333333333333331    0.6666666666666667    0.6666666666666669 # Cr3
  0.6502999999999999    0.4747000000000002    0.1928000000000000 # O1
  0.5175000000000001    0.3288000000000003    0.4655000000000000 # O2
  0.4217000000000001    0.1837000000000000    0.9075999999999999 # O3
  0.3169666666666668    0.8080333333333337    0.5261333333333330 # O4
  0.1841666666666669    0.6621333333333335    0.7988333333333331 # O5
  0.0883666666666671    0.5170333333333336    0.2409333333333329 # O6
  0.9836333333333334    0.1413666666666667    0.8594666666666667 # O7
  0.8508333333333330   -0.0045333333333333    1.1321666666666668 # O8
  0.7550333333333332    0.8503666666666667    0.5742666666666666 # O9
  0.5252999999999999    0.1756000000000000    0.1928000000000000 # O10
  0.6712000000000002    0.1887000000000000    0.4655000000000000 # O11
  0.8163000000000002    0.2380000000000002    0.9075999999999999 # O12
  0.1919666666666668    0.5089333333333337    0.5261333333333330 # O13
  0.3378666666666667    0.5220333333333337    0.7988333333333331 # O14
  0.4829666666666665    0.5713333333333332    0.2409333333333329 # O15
  0.8586333333333331   -0.1577333333333336    0.8594666666666667 # O16
  1.0045333333333331   -0.1446333333333335    1.1321666666666668 # O17
  0.1496333333333337    0.9046666666666670    0.5742666666666666 # O18
  0.8243999999999997    0.3496999999999999    0.1928000000000000 # O19
  0.8112999999999999    0.4825000000000004    0.4655000000000000 # O20
  0.7620000000000000    0.5783000000000000    0.9075999999999999 # O21
  0.4910666666666668    0.6830333333333335    0.5261333333333330 # O22
  0.4779666666666667    0.8158333333333334    0.7988333333333331 # O23
  0.4286666666666669    0.9116333333333334    0.2409333333333329 # O24
  1.1577333333333335    0.0163666666666669    0.8594666666666667 # O25
  1.1446333333333334    0.1491666666666668    1.1321666666666668 # O26
  0.0953333333333333    0.2449666666666669    0.5742666666666666 # O27
  0.5183000000000001    0.4298000000000003    0.7528999999999999 # F1
  0.1849666666666669    0.7631333333333333    0.0862333333333337 # F2
  0.8516333333333332    0.0964666666666667    0.4195666666666668 # F3
  0.5701999999999999    0.0884999999999998    0.7528999999999999 # F4
  0.2368666666666669    0.4218333333333334    0.0862333333333337 # F5
  0.9035333333333333    0.7551666666666670    0.4195666666666668 # F6
  0.9114999999999999    0.4817000000000000    0.7528999999999999 # F7
  0.5781666666666666    0.8150333333333331    0.0862333333333337 # F8
  0.2448333333333331    0.1483666666666665    0.4195666666666668 # F9
  0.4471000000000003    0.2582000000000001    0.8697999999999995 # H1
  0.4624000000000000    0.1563999999999998    0.8539000000000001 # H2
  0.5238000000000003    0.3651000000000003    0.5512000000000000 # H3
  0.4389000000000002    0.2645000000000002    0.4475999999999997 # H4
  0.5895000000000000    0.5018000000000001    0.2014000000000000 # H5
  0.6910999999999999    0.4994000000000003    0.1052999999999999 # H6
  0.1137666666666665    0.5915333333333331    0.2031333333333333 # H7
  0.1290666666666666    0.4897333333333334    0.1872333333333333 # H8
  0.1904666666666670    0.6984333333333334    0.8845333333333331 # H9
  0.1055666666666664    0.5978333333333332    0.7809333333333335 # H10
  0.2561666666666670    0.8351333333333336    0.5347333333333329 # H11
  0.3577666666666667    0.8327333333333333    0.4386333333333330 # H12
  0.7804333333333333    0.9248666666666666    0.5364666666666664 # H13
  0.7957333333333334    0.8230666666666669    0.5205666666666663 # H14
  0.8571333333333334    0.0317666666666668    1.2178666666666662 # H15
  0.7722333333333332   -0.0688333333333334    1.1142666666666665 # H16
  0.9228333333333328    0.1684666666666665    0.8680666666666662 # H17
  1.0244333333333335    0.1660666666666667    0.7719666666666667 # H18
  0.7418000000000001    0.1889000000000000    0.8697999999999995 # H19
  0.8436000000000003    0.3060000000000001    0.8539000000000001 # H20
  0.6348999999999999    0.1587000000000001    0.5512000000000000 # H21
  0.7355000000000002    0.1743999999999999    0.4475999999999997 # H22
  0.4982000000000002    0.0877000000000000    0.2014000000000000 # H23
  0.5006000000000002    0.1917000000000001    0.1052999999999999 # H24
  0.4084666666666666    0.5222333333333335    0.2031333333333333 # H25
  0.5102666666666668    0.6393333333333338    0.1872333333333333 # H26
  0.3015666666666670    0.4920333333333337    0.8845333333333331 # H27
  0.4021666666666667    0.5077333333333334    0.7809333333333335 # H28
  0.1648666666666667    0.4210333333333336    0.5347333333333329 # H29
  0.1672666666666670    0.5250333333333337    0.4386333333333330 # H30
  0.0751333333333334    0.8555666666666667    0.5364666666666664 # H31
  0.1769333333333336    0.9726666666666668    0.5205666666666663 # H32
  0.9682333333333333   -0.1746333333333335    1.2178666666666662 # H33
  1.0688333333333333   -0.1589333333333332    1.1142666666666665 # H34
  0.8315333333333331   -0.2456333333333335    0.8680666666666662 # H35
  0.8339333333333333   -0.1416333333333334    0.7719666666666667 # H36
  0.8111000000000002    0.5529000000000002    0.8697999999999995 # H37
  0.6940000000000000    0.5376000000000003    0.8539000000000001 # H38
  0.8412999999999999    0.4762000000000002    0.5512000000000000 # H39
  0.8256000000000001    0.5611000000000002    0.4475999999999997 # H40
  0.9123000000000002    0.4105000000000001    0.2014000000000000 # H41
  0.8082999999999998    0.3088999999999998    0.1052999999999999 # H42
  0.4777666666666670    0.8862333333333337    0.2031333333333333 # H43
  0.3606666666666671    0.8709333333333339    0.1872333333333333 # H44
  0.5079666666666667    0.8095333333333333    0.8845333333333331 # H45
  0.4922666666666667    0.8944333333333331    0.7809333333333335 # H46
  0.5789666666666669    0.7438333333333337    0.5347333333333329 # H47
  0.4749666666666668    0.6422333333333333    0.4386333333333330 # H48
  0.1444333333333331    0.2195666666666665    0.5364666666666664 # H49
  0.0273333333333332    0.2042666666666667    0.5205666666666663 # H50
  1.1746333333333328    0.1428666666666667    1.2178666666666662 # H51
  1.1589333333333336    0.2277666666666666    1.1142666666666665 # H52
  1.2456333333333331    0.0771666666666665    0.8680666666666662 # H53
  1.1416333333333331   -0.0244333333333333    0.7719666666666667 # H54
