POSCAR generated by cell class
1.0
  7.9541862572213473    0.0000000000000000    0.0000000000000000
 -3.9770931286106719    6.8885273651867509    0.0000000000000000
  0.0000000000000000    0.0000000000000000    7.3612965362008600
 4 6 2 24
Direct
  0.0000000000000000    0.0000000000000000    0.9368000000000000 # 11
  0.6666666666666666    0.3333333333333333    0.4509000000000000 # 12
  0.0000000000000000    0.0000000000000000    0.5677000000000000 # 13
  0.6666666666666666    0.3333333333333333    0.0572000000000000 # 14
  0.9812000000000000    0.3599000000000000    0.7560000000000000 # 21
  0.0076000000000000    0.7163000000000002    0.2573000000000000 # 22
  0.6401000000000000    0.6213000000000000    0.7560000000000000 # 23
  0.2837000000000000    0.2913000000000000    0.2573000000000000 # 24
  0.3787000000000000    0.0188000000000000    0.7560000000000000 # 25
  0.7087000000000000    0.9923999999999999    0.2573000000000000 # 26
  0.3333333333333333    0.6666666666666666    0.2534000000000000 # 31
  0.3333333333333333    0.6666666666666666    0.7844000000000000 # 32
  0.8888000000000001    0.3916000000000000    0.9187000000000000 # 41
  0.8858000000000001    0.3806000000000000    0.5865000000000000 # 42
  0.0645000000000000    0.8356000000000000    0.0794000000000000 # 43
  0.1349000000000000    0.6114000000000002    0.2501000000000000 # 44
  0.8099000000000000    0.5380000000000000    0.2507000000000000 # 45
  0.7504000000000000    0.9164000000000000    0.4369000000000000 # 46
  0.9235000000000000    0.1339000000000000    0.7548000000000000 # 47
  0.2141000000000000    0.4884000000000000    0.7471000000000000 # 48
  0.6084000000000002    0.4972000000000000    0.9187000000000000 # 49
  0.6194000000000000    0.5052000000000000    0.5865000000000000 # 410
  0.1644000000000000    0.2289000000000000    0.0794000000000000 # 411
  0.3886000000000000    0.5235000000000000    0.2501000000000000 # 412
  0.4620000000000000    0.2719000000000000    0.2507000000000000 # 413
  0.0836000000000000    0.8340000000000000    0.4369000000000000 # 414
  0.8661000000000000    0.7896000000000000    0.7548000000000000 # 415
  0.5116000000000002    0.7257000000000000    0.7471000000000000 # 416
  0.5028000000000000    0.1112000000000000    0.9187000000000000 # 417
  0.4948000000000000    0.1142000000000000    0.5865000000000000 # 418
  0.7711000000000000    0.9355000000000000    0.0794000000000000 # 419
  0.4765000000000000    0.8651000000000000    0.2501000000000000 # 420
  0.7281000000000000    0.1901000000000000    0.2507000000000000 # 421
  0.1660000000000000    0.2496000000000000    0.4369000000000000 # 422
  0.2104000000000000    0.0765000000000000    0.7548000000000000 # 423
  0.2743000000000000    0.7859000000000002    0.7471000000000000 # 424
