$cell vectors
1.0
 16.9905920052129851    0.0000000000000000    0.0000000000000000
 -8.4952960026064890   14.7142843018512330    0.0000000000000000
  0.0000000000000000    0.0000000000000000    8.8887958174483082
 48 6 54
Direct
  0.5352999999999999    0.1882999999999997    0.6624999999999996 # Se1
  0.2335999999999999    0.1699999999999999    0.0999999999999998 # Se2
  0.4466000000000000    0.1359000000000001    0.0826999999999998 # Se3
  0.6505000000000001    0.1156999999999999    0.8854999999999995 # Se4
  0.1463000000000000    0.1259999999999999    0.6809999999999998 # Se5
  0.5268999999999999    0.3238999999999997    0.3036999999999994 # Se6
  0.3364000000000000    0.1378000000000001    0.4005999999999997 # Se7
  0.4512999999999997    0.0029999999999998    0.4101999999999997 # Se8
  0.4647000000000000    0.8116999999999999    0.3374999999999997 # Se9
  0.7663999999999997    0.8299999999999997    0.8999999999999996 # Se10
  0.5534000000000001    0.8640999999999999    0.9172999999999998 # Se11
  0.3495000000000001    0.8843000000000000    0.1145000000000001 # Se12
  0.8536999999999999    0.8739999999999998    0.3190000000000001 # Se13
  0.4730999999999998    0.6760999999999998    0.6962999999999994 # Se14
  0.6636000000000000    0.8621999999999999    0.5993999999999997 # Se15
  0.5486999999999999    0.9969999999999998    0.5897999999999998 # Se16
  0.8117000000000000    0.3469999999999999    0.6624999999999996 # Se17
  0.8300000000000001    0.0636000000000000    0.0999999999999998 # Se18
  0.8640999999999998    0.3106999999999999    0.0826999999999998 # Se19
  0.8843000000000001    0.5348000000000001    0.8854999999999995 # Se20
  0.8740000000000002    0.0203000000000001    0.6809999999999998 # Se21
  0.6761000000000001    0.2029999999999999    0.3036999999999994 # Se22
  0.8622000000000001    0.1986000000000001    0.4005999999999997 # Se23
  0.9969999999999998    0.4483000000000001    0.4101999999999997 # Se24
  0.1882999999999999    0.6530000000000001    0.3374999999999997 # Se25
  0.1700000000000000    0.9363999999999999    0.8999999999999996 # Se26
  0.1358999999999999    0.6892999999999998    0.9172999999999998 # Se27
  0.1157000000000001    0.4652000000000000    0.1145000000000001 # Se28
  0.1259999999999998    0.9796999999999999    0.3190000000000001 # Se29
  0.3238999999999999    0.7969999999999996    0.6962999999999994 # Se30
  0.1378000000000000    0.8013999999999999    0.5993999999999997 # Se31
  0.0029999999999997    0.5516999999999997    0.5897999999999998 # Se32
  0.6529999999999999    0.4647000000000000    0.6624999999999996 # Se33
  0.9363999999999999    0.7663999999999997    0.0999999999999998 # Se34
  0.6892999999999998    0.5534000000000000    0.0826999999999998 # Se35
  0.4652000000000002    0.3495000000000000    0.8854999999999995 # Se36
  0.9796999999999998    0.8536999999999997    0.6809999999999998 # Se37
  0.7969999999999999    0.4731000000000000    0.3036999999999994 # Se38
  0.8013999999999999    0.6636000000000000    0.4005999999999997 # Se39
  0.5517000000000002    0.5487000000000001    0.4101999999999997 # Se40
  0.3469999999999999    0.5352999999999999    0.3374999999999997 # Se41
  0.0635999999999999    0.2335999999999999    0.8999999999999996 # Se42
  0.3107000000000000    0.4466000000000000    0.9172999999999998 # Se43
  0.5347999999999998    0.6504999999999995    0.1145000000000001 # Se44
  0.0202999999999999    0.1463000000000000    0.3190000000000001 # Se45
  0.2029999999999999    0.5269000000000000    0.6962999999999994 # Se46
  0.1986000000000000    0.3364000000000001    0.5993999999999997 # Se47
  0.4483000000000000    0.4513000000000000    0.5897999999999998 # Se48
  0.8542000000000003    0.1939000000000001    0.7983999999999998 # Na1
  0.1457999999999999    0.8060999999999998    0.2016000000000002 # Na2
  0.8061000000000000    0.6602999999999999    0.7983999999999998 # Na3
  0.1939000000000000    0.3396999999999998    0.2016000000000002 # Na4
  0.3397000000000000    0.1458000000000000    0.7983999999999998 # Na5
  0.6603000000000001    0.8542000000000000    0.2016000000000002 # Na6
  0.6041000000000001    0.2729000000000000    0.8306999999999995 # B1
  0.6074999999999998    0.3352999999999999    0.1318999999999996 # B2
  0.1073000000000000    0.0817999999999999    0.0361000000000000 # B3
  0.0667000000000000    0.0516999999999999    0.8498999999999993 # B4
  0.4374999999999999    0.2016999999999998    0.2555999999999997 # B5
  0.5674000000000000    0.2382999999999998    0.0186999999999999 # B6
  0.6629000000000003    0.2345000000000000    0.9443999999999999 # B7
  0.5754000000000001    0.1016000000000001    0.7072999999999997 # B8
  0.1375999999999999    0.2321000000000000    0.7325000000000002 # B9
  0.3959000000000001    0.7271000000000000    0.1692999999999999 # B10
  0.3925000000000001    0.6647000000000001    0.8680999999999993 # B11
  0.8927000000000000    0.9182000000000000    0.9639000000000000 # B12
  0.9333000000000000    0.9482999999999997    0.1501000000000001 # B13
  0.5624999999999998    0.7982999999999998    0.7443999999999997 # B14
  0.4326000000000000    0.7617000000000000    0.9812999999999994 # B15
  0.3371000000000000    0.7655000000000001    0.0555999999999996 # B16
  0.4246000000000000    0.8983999999999999    0.2926999999999997 # B17
  0.8624000000000001    0.7678999999999995    0.2674999999999999 # B18
  0.7271000000000000    0.3311999999999998    0.8306999999999995 # B19
  0.6647000000000002    0.2721999999999999    0.1318999999999996 # B20
  0.9181999999999999    0.0255000000000000    0.0361000000000000 # B21
  0.9482999999999999    0.0149999999999999    0.8498999999999993 # B22
  0.7983000000000000    0.2358000000000000    0.2555999999999997 # B23
  0.7617000000000000    0.3291000000000001    0.0186999999999999 # B24
  0.7655000000000002    0.4284000000000001    0.9443999999999991 # B25
  0.8983999999999998    0.4737999999999998    0.7072999999999997 # B26
  0.7679000000000000    0.9054999999999999    0.7324999999999995 # B27
  0.2728999999999996    0.6687999999999997    0.1692999999999999 # B28
  0.3353000000000000    0.7278000000000000    0.8680999999999993 # B29
  0.0818000000000000    0.9745000000000000    0.9639000000000000 # B30
  0.0516999999999997    0.9849999999999998    0.1501000000000001 # B31
  0.2016999999999998    0.7642000000000000    0.7443999999999997 # B32
  0.2382999999999998    0.6708999999999999    0.9812999999999994 # B33
  0.2345000000000000    0.5715999999999999    0.0555999999999996 # B34
  0.1015999999999999    0.5261999999999999    0.2926999999999997 # B35
  0.2320999999999998    0.0944999999999998    0.2674999999999999 # B36
  0.6688000000000002    0.3959000000000001    0.8306999999999995 # B37
  0.7277999999999998    0.3924999999999998    0.1318999999999996 # B38
  0.9744999999999999    0.8927000000000000    0.0361000000000000 # B39
  0.9849999999999999    0.9332999999999998    0.8498999999999993 # B40
  0.7641999999999998    0.5624999999999997    0.2555999999999997 # B41
  0.6709000000000003    0.4326000000000001    0.0186999999999999 # B42
  0.5716000000000001    0.3371000000000000    0.9443999999999999 # B43
  0.5261999999999999    0.4245999999999998    0.7072999999999997 # B44
  0.0944999999999999    0.8623999999999997    0.7324999999999995 # B45
  0.3312000000000000    0.6041000000000000    0.1692999999999999 # B46
  0.2722000000000001    0.6075000000000003    0.8680999999999993 # B47
  0.0255000000000001    0.1073000000000000    0.9639000000000000 # B48
  0.0149999999999999    0.0667000000000001    0.1501000000000001 # B49
  0.2357999999999998    0.4374999999999999    0.7443999999999997 # B50
  0.3290999999999999    0.5673999999999999    0.9812999999999994 # B51
  0.4283999999999999    0.6629000000000002    0.0555999999999996 # B52
  0.4737999999999998    0.5753999999999998    0.2926999999999997 # B53
  0.9054999999999997    0.1375999999999999    0.2674999999999999 # B54
