$cell vectors
1.0
 10.5629950296672739    0.0000000000000000    0.0000000000000000
 -5.2814975148336343    9.1478220357406155    0.0000000000000000
  0.0000000000000000    0.0000000000000000    5.3679974741317729
 6 6 18 6
Direct
  0.5453000000000002    0.6225000000000003    0.0000000000000000 # Ag1
  0.3775000000000001    0.9228000000000002    0.0000000000000000 # Ag2
  0.0772000000000004    0.4547000000000001    0.0000000000000000 # Ag3
  0.6225000000000001    0.5452999999999999    0.4999999999999999 # Ag4
  0.9228000000000002    0.3775000000000003    0.4999999999999999 # Ag5
  0.4546999999999998    0.0771999999999997    0.4999999999999999 # Ag6
  0.7071999999999998    0.2072000000000001    0.9860000000000002 # S1
  0.7928000000000001    0.5000000000000000    0.9860000000000002 # S2
  0.4999999999999997    0.2927999999999998    0.9860000000000002 # S3
  0.2072000000000000    0.7072000000000002    0.4860000000000003 # S4
  0.5000000000000000    0.7928000000000005    0.4860000000000003 # S5
  0.2927999999999997    0.5000000000000000    0.4860000000000003 # S6
  0.7074999999999997    0.1988999999999998    0.2554000000000000 # O1
  0.7393999999999999    0.1108000000000000    0.8499999999999998 # O2
  0.8496000000000000    0.7910000000000003    0.4518999999999998 # O3
  0.8011000000000003    0.5086000000000003    0.2554000000000000 # O4
  0.8891999999999998    0.6285999999999998    0.8499999999999998 # O5
  0.2089999999999997    0.0585999999999998    0.4518999999999998 # O6
  0.4914000000000001    0.2924999999999999    0.2554000000000000 # O7
  0.3714000000000002    0.2606000000000002    0.8499999999999998 # O8
  0.9413999999999998    0.1504000000000001    0.4518999999999998 # O9
  0.1988999999999997    0.7075000000000001    0.7554000000000001 # O10
  0.1108000000000002    0.7393999999999998    0.3499999999999999 # O11
  0.7910000000000001    0.8496000000000006    0.9518999999999997 # O12
  0.5085999999999999    0.8011000000000001    0.7554000000000001 # O13
  0.6286000000000002    0.8892000000000005    0.3499999999999999 # O14
  0.0586000000000002    0.2089999999999999    0.9518999999999997 # O15
  0.2925000000000001    0.4914000000000004    0.7554000000000001 # O16
  0.2605999999999999    0.3714000000000002    0.3499999999999999 # O17
  0.1503999999999999    0.9414000000000001    0.9518999999999997 # O18
  0.5472999999999999    0.1752000000000000    0.8909999999999999 # N1
  0.8247999999999998    0.3720999999999999    0.8909999999999999 # N2
  0.6279000000000002    0.4527000000000002    0.8909999999999999 # N3
  0.1751999999999998    0.5472999999999999    0.3910000000000001 # N4
  0.3720999999999999    0.8248000000000000    0.3910000000000001 # N5
  0.4527000000000001    0.6279000000000001    0.3910000000000001 # N6
