POSCAR generated by cell class
1.0
  5.0339976312927215    0.0000000000000000    0.0000000000000000
 -2.5169988156463594    4.3595698312901874    0.0000000000000000
  0.0000000000000000    0.0000000000000000   14.1409933460688197
 3 15 18
Direct
  0.1111000000000000    0.8889000000000000    0.3333333333333333 # 11
  0.1111000000000000    0.2222000000000000    0.6666666666666666 # 12
  0.7778000000000002    0.8889000000000000    0.0000000000000000 # 13
  0.4444000000000001    0.5556000000000000    0.3333333333333333 # 21
  0.7778000000000002    0.2222000000000000    0.3333333333333333 # 22
  0.1111000000000000    0.8889000000000000    0.8333333333333334 # 23
  0.4444000000000001    0.5556000000000000    0.8333333333333334 # 24
  0.7778000000000002    0.2222000000000000    0.8333333333333334 # 25
  0.4444000000000001    0.8888000000000001    0.6666666666666666 # 26
  0.7778000000000002    0.5556000000000000    0.6666666666666666 # 27
  0.1111000000000000    0.2222000000000000    0.1666666666666667 # 28
  0.4444000000000001    0.8888000000000001    0.1666666666666667 # 29
  0.7778000000000002    0.5556000000000000    0.1666666666666667 # 210
  0.1112000000000000    0.5556000000000000    0.0000000000000000 # 211
  0.4444000000000001    0.2222000000000000    0.0000000000000000 # 212
  0.7778000000000002    0.8889000000000000    0.5000000000000000 # 213
  0.1112000000000000    0.5556000000000000    0.5000000000000000 # 214
  0.4444000000000001    0.2222000000000000    0.5000000000000000 # 215
  0.1111000000000000    0.8889000000000000    0.5833000000000002 # 31
  0.4444000000000001    0.5556000000000000    0.5833000000000002 # 32
  0.7778000000000002    0.2222000000000000    0.5833000000000002 # 33
  0.1111000000000000    0.2222000000000000    0.9166333333333334 # 34
  0.4444000000000001    0.8888000000000001    0.9166333333333334 # 35
  0.7778000000000002    0.5556000000000000    0.9166333333333334 # 36
  0.7778000000000002    0.8889000000000000    0.2499666666666667 # 37
  0.1112000000000000    0.5556000000000000    0.2499666666666667 # 38
  0.4444000000000001    0.2222000000000000    0.2499666666666667 # 39
  0.1111000000000000    0.8889000000000000    0.0833666666666666 # 310
  0.4444000000000001    0.5556000000000000    0.0833666666666666 # 311
  0.7778000000000002    0.2222000000000000    0.0833666666666666 # 312
  0.7778000000000002    0.8889000000000000    0.7500333333333333 # 313
  0.1112000000000000    0.5556000000000000    0.7500333333333333 # 314
  0.4444000000000001    0.2222000000000000    0.7500333333333333 # 315
  0.1111000000000000    0.2222000000000000    0.4167000000000000 # 316
  0.4444000000000001    0.8888000000000001    0.4167000000000000 # 317
  0.7778000000000002    0.5556000000000000    0.4167000000000000 # 318
