$cell vectors
1.0
  7.8050963273744252    0.0000000000000000    0.0000000000000000
 -2.5690227480952075    7.3701866190323218    0.0000000000000000
 -2.5690227480952075   -3.6161021794898791    6.4221068059361670
 10 16
Direct
  0.1940000000000002    0.1940000000000002    0.1940000000000003 # Cr1
  0.0029999999999999    0.0030000000000001    0.7939999999999998 # Cr2
  0.9979999999999991    0.9979999999999998    0.3399999999999996 # Cr3
  0.3549999999999998    0.3550000000000002    0.0059999999999999 # Cr4
  0.7940000000000003    0.0029999999999999    0.0030000000000004 # Cr5
  0.3399999999999996    0.9979999999999993    0.9979999999999993 # Cr6
  0.0060000000000002    0.3549999999999999    0.3549999999999998 # Cr7
  0.0030000000000001    0.7940000000000000    0.0030000000000004 # Cr8
  0.9979999999999991    0.3400000000000000    0.9979999999999993 # Cr9
  0.3549999999999997    0.0059999999999999    0.3549999999999998 # Cr10
  0.6719999999999994    0.6719999999999995    0.6719999999999994 # Al1
  0.6539999999999994    0.6539999999999996    0.9879999999999993 # Al2
  0.3489999999999996    0.3490000000000001    0.5819999999999999 # Al3
  0.7220000000000001    0.7220000000000001    0.3560000000000003 # Al4
  0.0329999999999998    0.2880000000000002    0.6610000000000000 # Al5
  0.9879999999999997    0.6539999999999997    0.6539999999999997 # Al6
  0.5819999999999994    0.3489999999999998    0.3489999999999999 # Al7
  0.3559999999999994    0.7219999999999994    0.7219999999999994 # Al8
  0.6609999999999993    0.0329999999999995    0.2879999999999996 # Al9
  0.6539999999999994    0.9879999999999992    0.6539999999999997 # Al10
  0.3489999999999994    0.5819999999999997    0.3489999999999999 # Al11
  0.7219999999999995    0.3559999999999995    0.7219999999999994 # Al12
  0.2880000000000000    0.6610000000000000    0.0329999999999999 # Al13
  0.2880000000000001    0.0330000000000003    0.6610000000000000 # Al14
  0.0329999999999994    0.6609999999999996    0.2879999999999996 # Al15
  0.6609999999999995    0.2880000000000000    0.0329999999999999 # Al16
