$cell vectors
1.0
 10.0229952837598280    0.0000000000000000    0.0000000000000000
 -5.0114976418799113    8.6801685377476314    0.0000000000000000
  0.0000000000000000    0.0000000000000000   25.4709880148305494
 18 18 90
Direct
  0.0000000000000000    0.0000000000000000    0.0000000000000000 # Ba1
  0.0000000000000000    0.0000000000000000    0.1637000000000001 # Ba2
  0.6666666666666667    0.3333333333333331    0.3333333333333331 # Ba3
  0.6666666666666667    0.3333333333333331    0.4970333333333334 # Ba4
  0.3333333333333332    0.6666666666666667    0.6666666666666666 # Ba5
  0.3333333333333332    0.6666666666666667    0.8303666666666667 # Ba6
  0.0000000000000000    0.0000000000000000    0.8362999999999998 # Ba7
  0.6666666666666667    0.3333333333333331    0.1696333333333333 # Ba8
  0.3333333333333332    0.6666666666666667    0.5029666666666667 # Ba9
  0.0000000000000000    0.0000000000000000    0.5000000000000001 # Ba10
  0.0000000000000000    0.0000000000000000    0.3363000000000000 # Ba11
  0.6666666666666667    0.3333333333333331    0.8333333333333333 # Ba12
  0.6666666666666667    0.3333333333333331    0.6696333333333333 # Ba13
  0.3333333333333332    0.6666666666666667    0.1666666666666667 # Ba14
  0.3333333333333332    0.6666666666666667    0.0029666666666666 # Ba15
  0.0000000000000000    0.0000000000000000    0.6637000000000001 # Ba16
  0.6666666666666667    0.3333333333333331    0.9970333333333331 # Ba17
  0.3333333333333332    0.6666666666666667    0.3303666666666667 # Ba18
  0.3461000000000001    0.0000000000000000    0.2500000000000001 # Ru1
  0.0127666666666668    0.3333333333333331    0.5833333333333334 # Ru2
  0.6794333333333333    0.6666666666666667    0.9166666666666667 # Ru3
  0.6539000000000000    0.0000000000000000    0.7499999999999998 # Ru4
  0.3205666666666667    0.3333333333333331    0.0833333333333333 # Ru5
  0.9872333333333339    0.6666666666666667    0.4166666666666666 # Ru6
  0.0000000000000000    0.3461000000000003    0.2500000000000001 # Ru7
  0.6666666666666669    0.6794333333333334    0.5833333333333334 # Ru8
  0.3333333333333336    0.0127666666666666    0.9166666666666667 # Ru9
  0.0000000000000002    0.6539000000000003    0.7499999999999998 # Ru10
  0.6666666666666670    0.9872333333333332    0.0833333333333333 # Ru11
  0.3333333333333333    0.3205666666666664    0.4166666666666666 # Ru12
  0.6539000000000003    0.6539000000000003    0.2500000000000001 # Ru13
  0.3205666666666668    0.9872333333333332    0.5833333333333334 # Ru14
  0.9872333333333332    0.3205666666666664    0.9166666666666667 # Ru15
  0.3461000000000001    0.3461000000000003    0.7499999999999998 # Ru16
  0.0127666666666668    0.6794333333333334    0.0833333333333333 # Ru17
  0.6794333333333336    0.0127666666666666    0.4166666666666666 # Ru18
  0.1706000000000000    0.0000000000000000    0.2500000000000001 # O1
  0.4376999999999999    0.0040999999999999    0.1910000000000000 # O2
  0.4593999999999998    0.2345999999999998    0.2502000000000000 # O3
 -0.1627333333333333    0.3333333333333331    0.5833333333333334 # O4
  0.1043666666666669    0.3374333333333336    0.5243333333333332 # O5
  0.1260666666666667    0.5679333333333335    0.5835333333333332 # O6
  0.5039333333333332    0.6666666666666667    0.9166666666666667 # O7
  0.7710333333333337    0.6707666666666666    0.8576666666666668 # O8
  0.7927333333333335    0.9012666666666665    0.9168666666666666 # O9
  0.8294000000000000    0.0000000000000000    0.7499999999999998 # O10
  0.5623000000000001   -0.0040999999999999    0.8089999999999999 # O11
  0.5406000000000004   -0.2345999999999998    0.7498000000000000 # O12
  0.4960666666666668    0.3333333333333331    0.0833333333333333 # O13
  0.2289666666666668    0.3292333333333332    0.1423333333333333 # O14
  0.2072666666666665    0.0987333333333333    0.0831333333333333 # O15
  1.1627333333333332    0.6666666666666667    0.4166666666666666 # O16
  0.8956333333333333    0.6625666666666667    0.4756666666666667 # O17
  0.8739333333333337    0.4320666666666669    0.4164666666666667 # O18
  0.0000000000000002    0.1706000000000000    0.2500000000000001 # O19
 -0.0041000000000000    0.4335999999999997    0.1910000000000000 # O20
 -0.2346000000000000    0.2247999999999999    0.2502000000000000 # O21
  0.6666666666666671    0.5039333333333331    0.5833333333333334 # O22
  0.6625666666666670    0.7669333333333334    0.5243333333333332 # O23
  0.4320666666666668    0.5581333333333330    0.5835333333333332 # O24
  0.3333333333333335   -0.1627333333333331    0.9166666666666667 # O25
  0.3292333333333333    0.1002666666666666    0.8576666666666668 # O26
  0.0987333333333334   -0.1085333333333332    0.9168666666666666 # O27
  0.0000000000000003    0.8293999999999998    0.7499999999999998 # O28
  0.0041000000000004    0.5664000000000000    0.8089999999999999 # O29
  0.2345999999999999    0.7751999999999999    0.7498000000000000 # O30
  0.6666666666666663    1.1627333333333327    0.0833333333333333 # O31
  0.6707666666666666    0.8997333333333332    0.1423333333333333 # O32
  0.9012666666666669    1.1085333333333336    0.0831333333333333 # O33
  0.3333333333333336    0.4960666666666668    0.4166666666666666 # O34
  0.3374333333333335    0.2330666666666664    0.4756666666666667 # O35
  0.5679333333333332    0.4418666666666669    0.4164666666666667 # O36
  0.8293999999999997    0.8293999999999998    0.2500000000000001 # O37
  0.5664000000000000    0.5623000000000001    0.1910000000000000 # O38
  0.7752000000000003    0.5406000000000002    0.2502000000000000 # O39
  0.4960666666666663    1.1627333333333327    0.5833333333333334 # O40
  0.2330666666666667    0.8956333333333333    0.5243333333333332 # O41
  0.4418666666666669    0.8739333333333332    0.5835333333333332 # O42
  1.1627333333333338    0.4960666666666668    0.9166666666666667 # O43
  0.8997333333333332    0.2289666666666665    0.8576666666666668 # O44
  1.1085333333333338    0.2072666666666664    0.9168666666666666 # O45
  0.1706000000000003    0.1706000000000000    0.7499999999999998 # O46
  0.4335999999999999    0.4376999999999996    0.8089999999999999 # O47
  0.2247999999999997    0.4593999999999996    0.7498000000000000 # O48
 -0.1627333333333336    0.5039333333333331    0.0833333333333333 # O49
  0.1002666666666668    0.7710333333333332    0.1423333333333333 # O50
 -0.1085333333333333    0.7927333333333334    0.0831333333333333 # O51
  0.5039333333333336   -0.1627333333333331    0.4166666666666666 # O52
  0.7669333333333332    0.1043666666666666    0.4756666666666667 # O53
  0.5581333333333336    0.1260666666666666    0.4164666666666667 # O54
  0.4336000000000000   -0.0040999999999999    0.3089999999999999 # O55
  0.2248000000000001   -0.2345999999999998    0.2498000000000000 # O56
  0.1002666666666667    0.3292333333333332    0.6423333333333334 # O57
 -0.1085333333333333    0.0987333333333333    0.5831333333333333 # O58
  0.7669333333333337    0.6625666666666667    0.9756666666666666 # O59
  0.5581333333333338    0.4320666666666669    0.9164666666666667 # O60
  0.5664000000000001    0.0040999999999999    0.6910000000000001 # O61
  0.7752000000000001    0.2345999999999998    0.7502000000000001 # O62
  0.2330666666666671    0.3374333333333336    0.0243333333333334 # O63
  0.4418666666666670    0.5679333333333335    0.0835333333333334 # O64
  0.8997333333333333    0.6707666666666666    0.3576666666666667 # O65
  1.1085333333333334    0.9012666666666665    0.4168666666666667 # O66
  0.5622999999999999    0.5664000000000000    0.3089999999999999 # O67
  0.5406000000000002    0.7751999999999999    0.2498000000000000 # O68
  0.2289666666666671    0.8997333333333332    0.6423333333333334 # O69
  0.2072666666666671    1.1085333333333336    0.5831333333333333 # O70
  0.8956333333333335    0.2330666666666664    0.9756666666666666 # O71
  0.8739333333333336    0.4418666666666669    0.9164666666666667 # O72
  0.4377000000000000    0.4335999999999997    0.6910000000000001 # O73
  0.4594000000000003    0.2247999999999999    0.7502000000000001 # O74
  0.1043666666666665    0.7669333333333334    0.0243333333333334 # O75
  0.1260666666666664    0.5581333333333330    0.0835333333333334 # O76
  0.7710333333333335    0.1002666666666666    0.3576666666666667 # O77
  0.7927333333333332   -0.1085333333333332    0.4168666666666667 # O78
  0.0041000000000000    0.4376999999999996    0.3089999999999999 # O79
  0.2345999999999997    0.4593999999999996    0.2498000000000000 # O80
  0.6707666666666672    0.7710333333333332    0.6423333333333334 # O81
  0.9012666666666669    0.7927333333333334    0.5831333333333333 # O82
  0.3374333333333334    0.1043666666666666    0.9756666666666666 # O83
  0.5679333333333336    0.1260666666666666    0.9164666666666667 # O84
 -0.0040999999999997    0.5623000000000001    0.6910000000000001 # O85
 -0.2345999999999999    0.5406000000000002    0.7502000000000001 # O86
  0.6625666666666666    0.8956333333333333    0.0243333333333334 # O87
  0.4320666666666669    0.8739333333333332    0.0835333333333334 # O88
  0.3292333333333334    0.2289666666666665    0.3576666666666667 # O89
  0.0987333333333332    0.2072666666666664    0.4168666666666667 # O90
