$molecule
0 1
@F         -1.97542       -0.00167       -0.00220
Mg         1.74098        0.00069       -0.00059
B         -0.64171        0.00038        0.00030
F          0.00283       -0.37603        1.24133
F          0.00630       -0.88689       -0.94476
F          0.00149        1.26346       -0.29374
$end

$rem
 exchange = b3lyp
 basis = 6-31+g*
 jobtype = sp
$end

