$molecule
 0 2
 O     -0.6078400000      1.2579300000     -0.1571000000
 C      0.2117300000      0.2815900000     -0.3819100000
 O     -0.2342300000     -0.9612700000     -0.7226800000
 O      1.6216300000      0.5534700000     -0.1569800000
 Li      0.7515000000      1.9270400000      0.2321900000
 C     -0.4629400000     -1.7662800000      0.4483900000
 C     -0.9496200000     -3.1604100000      0.0053400000
 C     -1.2320800000     -4.1001300000      1.2059900000
 C     -1.7069800000     -5.5041800000      0.7705400000
 H     -1.2250100000     -1.3109500000      1.0928300000
 H      0.4654500000     -1.8900300000      1.0150700000
 H     -1.8487800000     -3.0475700000     -0.6074100000
 H     -1.9925900000     -3.6532800000      1.8524800000
 H     -0.3149600000     -4.2108800000      1.7903600000
 H     -0.9490100000     -5.9953700000      0.1567200000
 H     -1.8846900000     -6.1169800000      1.6557400000
 H     -2.6384600000     -5.4393100000      0.2041200000
$end

$rem
   job_type = force
   basis = def2-svpd
   max_scf_cycles = 100
   gen_scfman = true
   xc_grid = 3
   thresh = 14
   s2thresh = 16
   scf_algorithm = diis
   resp_charges = true
   symmetry = false
   sym_ignore = true
   method = wb97xv
   solvent_method = smd
$end

$smx
   solvent other
   epsilon 18.5
   soln 1.415
   sola 0.00
   solb 0.735
   solg 20.2
   solc 0.00
   solh 0.00
$end
