$molecule
 0 2
 N     -0.1790130000     -0.6758800000     -0.0652850000
 S     -0.0995610000     -0.4274190000     -1.5136320000
 O     -1.2416570000     -0.7148360000     -2.3833180000
 Mg     -1.4877060000     -1.3619240000      1.2812970000
$end

$rem
   job_type = sp
   basis = def2-tzvpd
   max_scf_cycles = 200
   gen_scfman = true
   xc_grid = 3
   scf_algorithm = diis
   resp_charges = true
   symmetry = false
   sym_ignore = true
   method = wb97mv
   nbo = true
   run_nbo6 = true
$end

$nbo
$end
