$molecule
 -1 1
 O     -0.6334776501      0.0777732237      1.1783842474
 C     -0.6606720018     -0.2605260574     -0.0465794763
 O      0.4450578721     -0.5106988810     -0.7282300874
 O     -1.7657361304     -0.3923415860     -0.6662039280
 Li     -2.4950478213      0.1381002622      0.9705250983
 C      1.7695161019     -0.1519175981     -0.0820796191
 C      2.1476883625      1.2769764739     -0.1746206443
 H      1.6752586368     -0.5448954558      0.9337631560
 H      2.4313688991     -0.8119304580     -0.6513035901
 H      3.0846715122      1.4294778816     -0.7234822145
 H      2.2043143032      1.7742659941      0.8010182074
$end

$rem
   job_type = pes_scan
   basis = def2-tzvppd
   max_scf_cycles = 200
   gen_scfman = true
   xc_grid = 3
   scf_algorithm = diis
   resp_charges = true
   symmetry = false
   sym_ignore = true
   method = wb97xv
   solvent_method = smd
   ideriv = 1
   thresh = 14
$end

$smx
   solvent other
$end

$scan
   stre 3 6 1.5 1.9 0.01
$end
