POSCAR generated by cell class
1.0
  5.0359976303516376    0.0000000000000000    0.0000000000000000
 -2.5179988151758175    4.3613018812827535    0.0000000000000000
  0.0000000000000000    0.0000000000000000   11.2549947040523701
 3 3 12
Direct
  0.4583000000000000    0.0000000000000000    0.3333333333333333 # 11
  0.0000000000000000    0.4583000000000000    0.6666666666666666 # 12
  0.5417000000000000    0.5417000000000000    0.0000000000000000 # 13
  0.4577000000000000    0.0000000000000000    0.8333333333333334 # 21
  0.0000000000000000    0.4577000000000000    0.1666666666666667 # 22
  0.5423000000000000    0.5423000000000000    0.5000000000000000 # 23
  0.4190000000000000    0.3180000000000000    0.3963000000000000 # 31
  0.4130000000000000    0.2640000000000000    0.8749000000000000 # 32
  0.6820000000000002    0.1010000000000000    0.7296333333333334 # 33
  0.7360000000000000    0.1490000000000000    0.2082333333333333 # 34
  0.8990000000000000    0.5810000000000000    0.0629666666666667 # 35
  0.8510000000000000    0.5870000000000000    0.5415666666666668 # 36
  0.1010000000000000    0.6820000000000002    0.2703666666666667 # 37
  0.1490000000000000    0.7360000000000000    0.7917666666666666 # 38
  0.5810000000000000    0.8990000000000000    0.9370333333333334 # 39
  0.5870000000000000    0.8510000000000000    0.4584333333333334 # 310
  0.3180000000000000    0.4190000000000000    0.6037000000000000 # 311
  0.2640000000000000    0.4130000000000000    0.1251000000000000 # 312
