POSCAR generated by cell class
1.0
  8.6379959354601787    0.0000000000000000    0.0000000000000000
 -4.3189979677300876    7.4807239178952418    0.0000000000000000
  0.0000000000000000    0.0000000000000000    4.7379977705730898
 3 3 3 18
Direct
  0.0000000000000000    0.0000000000000000    0.0000000000000000 # 11
  0.3333333333333333    0.6666666666666666    0.5019000000000000 # 12
  0.6666666666666666    0.3333333333333333    0.4981000000000000 # 13
  0.6342000000000000    0.0000000000000000    0.0000000000000000 # 21
  0.0000000000000000    0.6342000000000000    0.0000000000000000 # 22
  0.3658000000000000    0.3658000000000000    0.0000000000000000 # 23
  0.3330000000000001    0.0000000000000000    0.5000000000000000 # 31
  0.0000000000000000    0.3330000000000001    0.5000000000000000 # 32
  0.6670000000000001    0.6670000000000001    0.5000000000000000 # 33
  0.0984000000000000    0.8887000000000002    0.7800000000000000 # 41
  0.4565000000000000    0.5803000000000001    0.7280000000000000 # 42
  0.2228000000000000    0.7671000000000000    0.2820000000000000 # 43
  0.1113000000000000    0.2097000000000000    0.7800000000000000 # 44
  0.4197000000000001    0.8762000000000000    0.7280000000000000 # 45
  0.2329000000000000    0.4557000000000000    0.2820000000000000 # 46
  0.7903000000000000    0.9016000000000000    0.7800000000000000 # 47
  0.1238000000000000    0.5435000000000000    0.7280000000000000 # 48
  0.5443000000000000    0.7772000000000000    0.2820000000000000 # 49
  0.2097000000000000    0.1113000000000000    0.2200000000000000 # 410
  0.8762000000000000    0.4197000000000001    0.2720000000000001 # 411
  0.4557000000000000    0.2329000000000000    0.7180000000000000 # 412
  0.9016000000000000    0.7903000000000000    0.2200000000000000 # 413
  0.5435000000000000    0.1238000000000000    0.2720000000000001 # 414
  0.7772000000000000    0.5443000000000000    0.7180000000000000 # 415
  0.8887000000000002    0.0984000000000000    0.2200000000000000 # 416
  0.5803000000000001    0.4565000000000000    0.2720000000000001 # 417
  0.7671000000000000    0.2228000000000000    0.7180000000000000 # 418
