POSCAR generated by cell class
1.0
 10.1999952004739374    0.0000000000000000    0.0000000000000000
 -5.0999976002369660    8.8334549620897782    0.0000000000000000
  0.0000000000000000    0.0000000000000000   30.3509857185867098
 16 64
Direct
  0.3585000000000000    0.4308000000000001    0.1052000000000000 # 11
  0.3333333333333333    0.6666666666666666    0.2213000000000000 # 12
  0.0447000000000000    0.2705000000000000    0.4167000000000000 # 13
  0.0000000000000000    0.0000000000000000    0.2944000000000000 # 14
  0.5692000000000002    0.9277000000000000    0.1052000000000000 # 15
  0.7295000000000001    0.7742000000000000    0.4167000000000000 # 16
  0.0723000000000000    0.6415000000000000    0.1052000000000000 # 17
  0.2258000000000000    0.9552999999999999    0.4167000000000000 # 18
  0.4308000000000001    0.3585000000000000    0.6052000000000000 # 19
  0.6666666666666666    0.3333333333333333    0.7213000000000002 # 110
  0.2705000000000000    0.0447000000000000    0.9167000000000000 # 111
  0.0000000000000000    0.0000000000000000    0.7944000000000000 # 112
  0.9277000000000000    0.5692000000000002    0.6052000000000000 # 113
  0.7742000000000000    0.7295000000000001    0.9167000000000000 # 114
  0.6415000000000000    0.0723000000000000    0.6052000000000000 # 115
  0.9552999999999999    0.2258000000000000    0.9167000000000000 # 116
  0.5734000000000000    0.4821000000000000    0.0584000000000000 # 21
  0.1797000000000000    0.2416000000000000    0.0589000000000000 # 22
  0.3796000000000000    0.2650000000000000    0.1526999999999999 # 23
  0.1296000000000000    0.4292000000000001    0.1606000000000000 # 24
  0.3879000000000001    0.4999000000000000    0.2617000000000000 # 25
  0.2519000000000000    0.4172000000000000    0.4621000000000000 # 26
  0.8580000000000002    0.2885000000000001    0.4579000000000000 # 27
  0.0925000000000000    0.4558000000000000    0.3633000000000000 # 28
  0.7980000000000002    0.0328000000000000    0.3600000000000000 # 29
  0.9910000000000000    0.1884999999999999    0.2531000000000000 # 210
  0.0000000000000000    0.0000000000000000    0.4696000000000000 # 211
  0.3333333333333333    0.6666666666666666    0.0500000000000000 # 212
  0.5179000000000000    0.0913000000000000    0.0584000000000000 # 213
  0.7584000000000000    0.9380999999999999    0.0589000000000000 # 214
  0.7350000000000000    0.1146000000000000    0.1526999999999999 # 215
  0.5708000000000000    0.7004000000000000    0.1606000000000000 # 216
  0.5001000000000000    0.8880000000000000    0.2617000000000000 # 217
  0.5828000000000000    0.8347000000000000    0.4621000000000000 # 218
  0.7115000000000000    0.5695000000000000    0.4579000000000000 # 219
  0.5442000000000000    0.6367000000000002    0.3633000000000000 # 220
  0.9671999999999999    0.7652000000000000    0.3600000000000000 # 221
  0.8115000000000000    0.8025000000000002    0.2531000000000000 # 222
  0.9087000000000000    0.4266000000000000    0.0584000000000000 # 223
  0.0619000000000001    0.8203000000000000    0.0589000000000000 # 224
  0.8854000000000000    0.6204000000000000    0.1526999999999999 # 225
  0.2996000000000000    0.8704000000000000    0.1606000000000000 # 226
  0.1120000000000000    0.6121000000000000    0.2617000000000000 # 227
  0.1653000000000000    0.7481000000000000    0.4621000000000000 # 228
  0.4305000000000000    0.1419999999999999    0.4579000000000000 # 229
  0.3633000000000000    0.9075000000000000    0.3633000000000000 # 230
  0.2348000000000000    0.2020000000000000    0.3600000000000000 # 231
  0.1974999999999999    0.0089999999999999    0.2531000000000000 # 232
  0.4821000000000000    0.5734000000000000    0.5584000000000000 # 233
  0.2416000000000000    0.1797000000000000    0.5589000000000000 # 234
  0.2650000000000000    0.3796000000000000    0.6527000000000002 # 235
  0.4292000000000001    0.1296000000000000    0.6606000000000000 # 236
  0.4999000000000000    0.3879000000000001    0.7617000000000002 # 237
  0.4172000000000000    0.2519000000000000    0.9621000000000000 # 238
  0.2885000000000001    0.8580000000000002    0.9579000000000000 # 239
  0.4558000000000000    0.0925000000000000    0.8633000000000000 # 240
  0.0328000000000000    0.7980000000000002    0.8600000000000000 # 241
  0.1884999999999999    0.9910000000000000    0.7531000000000000 # 242
  0.0000000000000000    0.0000000000000000    0.9696000000000000 # 243
  0.6666666666666666    0.3333333333333333    0.5500000000000002 # 244
  0.0913000000000000    0.5179000000000000    0.5584000000000000 # 245
  0.9380999999999999    0.7584000000000000    0.5589000000000000 # 246
  0.1146000000000000    0.7350000000000000    0.6527000000000002 # 247
  0.7004000000000000    0.5708000000000000    0.6606000000000000 # 248
  0.8880000000000000    0.5001000000000000    0.7617000000000002 # 249
  0.8347000000000000    0.5828000000000000    0.9621000000000000 # 250
  0.5695000000000000    0.7115000000000000    0.9579000000000000 # 251
  0.6367000000000002    0.5442000000000000    0.8633000000000000 # 252
  0.7652000000000000    0.9671999999999999    0.8600000000000000 # 253
  0.8025000000000002    0.8115000000000000    0.7531000000000000 # 254
  0.4266000000000000    0.9087000000000000    0.5584000000000000 # 255
  0.8203000000000000    0.0619000000000001    0.5589000000000000 # 256
  0.6204000000000000    0.8854000000000000    0.6527000000000002 # 257
  0.8704000000000000    0.2996000000000000    0.6606000000000000 # 258
  0.6121000000000000    0.1120000000000000    0.7617000000000002 # 259
  0.7481000000000000    0.1653000000000000    0.9621000000000000 # 260
  0.1419999999999999    0.4305000000000000    0.9579000000000000 # 261
  0.9075000000000000    0.3633000000000000    0.8633000000000000 # 262
  0.2020000000000000    0.2348000000000000    0.8600000000000000 # 263
  0.0089999999999999    0.1974999999999999    0.7531000000000000 # 264
