$cell vectors
1.0
 10.5019950583703192    0.0000000000000000    0.0000000000000000
 -5.2509975291851569    9.0949945109673394    0.0000000000000000
  0.0000000000000000    0.0000000000000000    7.4729964836413423
 9 9 27
Direct
  0.4557000000000002    0.5679000000000000    0.6267000000000001 # Rb1
  0.1189999999999999    1.2214999999999998    1.0000000000000000 # Rb2
  0.7760000000000001    0.2206000000000002    0.6114999999999999 # Rb3
  0.4321000000000000    0.8877999999999996    0.2933666666666667 # Rb4
 -0.2214999999999999   -0.1024999999999998    0.6666666666666672 # Rb5
  0.7793999999999998    0.5553999999999997    0.2781666666666670 # Rb6
  0.1122000000000000    0.5443000000000000   -0.0399666666666669 # Rb7
  1.1025000000000003    0.8810000000000000    0.3333333333333336 # Rb8
  0.4446000000000002    0.2240000000000002   -0.0551666666666666 # Rb9
  0.4347000000000002    0.5659000000000001    0.1008999999999997 # N1
  0.1057000000000001    0.2097000000000001    0.5150000000000000 # N2
  0.7449999999999998    0.2100999999999999    0.1097000000000002 # N3
  0.4341000000000001    0.8687999999999999    0.7675666666666670 # N4
  0.7902999999999996    0.8959999999999995    0.1816666666666665 # N5
  0.7898999999999996    0.5348999999999995    0.7763666666666666 # N6
  0.1311999999999998    0.5653000000000000    0.4342333333333332 # N7
  0.1039999999999999    0.8942999999999998    0.8483333333333337 # N8
  0.4651000000000002    0.2550000000000001    0.4430333333333338 # N9
  0.3379000000000000    0.5585999999999995   -0.0010000000000000 # O1
  0.3979999999999997    0.4754999999999995    0.2205000000000001 # O2
  0.5618000000000000    0.6513000000000002    0.0572999999999999 # O3
 -0.0030000000000001    0.1085999999999998    0.6180000000000000 # O4
  0.2308999999999999    0.2533999999999999    0.5569999999999999 # O5
  0.0569999999999997    0.2449999999999996    0.3869999999999999 # O6
  0.6880000000000002    0.1184000000000001    0.2445000000000003 # O7
  0.8720000000000000    0.2797999999999999    0.0851000000000000 # O8
  0.6640000000000001    0.2186000000000002    0.0063999999999999 # O9
  0.4414000000000001    0.7792999999999997    0.6656666666666665 # O10
  0.5245000000000000    0.9224999999999995    0.8871666666666664 # O11
  0.3486999999999996    0.9104999999999996    0.7239666666666671 # O12
  0.8914000000000000    0.8884000000000001    0.2846666666666665 # O13
  0.7465999999999996    0.9774999999999998    0.2236666666666670 # O14
  0.7550000000000001    0.8119999999999999    0.0536666666666670 # O15
  0.8816000000000002    0.5695999999999997    0.9111666666666667 # O16
  0.7202000000000000    0.5921999999999999    0.7517666666666672 # O17
  0.7814000000000000    0.4453999999999999    0.6730666666666670 # O18
  0.2206999999999997    0.6620999999999996    0.3323333333333336 # O19
  0.0774999999999998    0.6019999999999996    0.5538333333333336 # O20
  0.0894999999999998    0.4382000000000000    0.3906333333333334 # O21
  0.1116000000000003    1.0030000000000003    0.9513333333333337 # O22
  0.0224999999999996    0.7690999999999997    0.8903333333333334 # O23
  0.1879999999999999    0.9429999999999998    0.7203333333333335 # O24
  0.4304000000000002    0.3120000000000002    0.5778333333333331 # O25
  0.4077999999999999    0.1280000000000002    0.4184333333333337 # O26
  0.5545999999999998    0.3360000000000000    0.3397333333333334 # O27
