$cell vectors
1.0
  4.9491976711946686    0.0000000000000000    0.0000000000000000
 -2.4745988355973312    4.2861309116053663    0.0000000000000000
  0.0000000000000000    0.0000000000000000   13.9979934133562907
 12 18
Direct
  0.0000000000000000    0.0000000000000000    0.3463000000000001 # V1
  0.0000000000000000    0.0000000000000000    0.1537000000000001 # V2
  0.0000000000000000    0.0000000000000000    0.6536999999999998 # V3
  0.0000000000000000    0.0000000000000000    0.8462999999999999 # V4
  0.6666666666666671    0.3333333333333338    0.6796333333333332 # V5
  0.6666666666666671    0.3333333333333338    0.4870333333333332 # V6
  0.6666666666666671    0.3333333333333338    0.9870333333333333 # V7
  0.6666666666666671    0.3333333333333338    0.1796333333333334 # V8
  0.3333333333333328    0.6666666666666663    0.0129666666666667 # V9
  0.3333333333333328    0.6666666666666663    0.8203666666666666 # V10
  0.3333333333333328    0.6666666666666663    0.3203666666666668 # V11
  0.3333333333333328    0.6666666666666663    0.5129666666666669 # V12
  0.3122000000000004    0.0000000000000000    0.2499999999999999 # O1
 -0.0000000000000006    0.3121999999999995    0.2499999999999999 # O2
  0.6877999999999994    0.6877999999999992    0.2499999999999999 # O3
  0.6877999999999994    0.0000000000000000    0.7500000000000000 # O4
 -0.0000000000000001    0.6877999999999992    0.7500000000000000 # O5
  0.3121999999999998    0.3121999999999995    0.7500000000000000 # O6
  0.9788666666666663    0.3333333333333338    0.5833333333333330 # O7
  0.6666666666666665    0.6455333333333333    0.5833333333333330 # O8
  0.3544666666666668    0.0211333333333330    0.5833333333333330 # O9
  0.3544666666666667    0.3333333333333338    0.0833333333333332 # O10
  0.6666666666666662    0.0211333333333330    0.0833333333333332 # O11
  0.9788666666666659    0.6455333333333333    0.0833333333333332 # O12
  0.6455333333333332    0.6666666666666663    0.9166666666666669 # O13
  0.3333333333333338    0.9788666666666671    0.9166666666666669 # O14
  0.0211333333333340    0.3544666666666667    0.9166666666666669 # O15
  0.0211333333333333    0.6666666666666663    0.4166666666666666 # O16
  0.3333333333333334    0.3544666666666667    0.4166666666666666 # O17
  0.6455333333333325    0.9788666666666657    0.4166666666666666 # O18
