$cell vectors
1.0
 10.4379950884849926    0.0000000000000000    0.0000000000000000
 -5.2189975442424963    9.0395689112052064    0.0000000000000000
  0.0000000000000000    0.0000000000000000   37.1499825193732036
 6 54 42 168
Direct
  0.0000000000000000    0.0000000000000000    1.0000000000000000 # Mn1
  0.6666666666666670    0.3333333333333331    0.3333333333333334 # Mn2
  0.3333333333333339    0.6666666666666669    0.6666666666666669 # Mn3
  1.0000000000000004    0.0000000000000000    0.5000000000000000 # Mn4
  0.6666666666666670    0.3333333333333331    0.8333333333333333 # Mn5
  0.3333333333333334    0.6666666666666669    0.1666666666666667 # Mn6
  0.2954000000000001    0.1584999999999998    0.6720999999999999 # Ca1
  0.2813000000000004    0.1464000000000001    0.5657000000000001 # Ca2
  0.3874000000000004    0.1798000000000000    0.7677999999999998 # Ca3
  0.9620666666666668    0.4918333333333335    0.0054333333333335 # Ca4
  0.9479666666666670    0.4797333333333332    0.8990333333333335 # Ca5
  0.0540666666666669    0.5131333333333331    0.1011333333333333 # Ca6
  0.6287333333333335    0.8251666666666667    0.3387666666666667 # Ca7
  0.6146333333333338    0.8130666666666669    0.2323666666666666 # Ca8
  0.7207333333333338    0.8464666666666668    0.4344666666666667 # Ca9
  0.8415000000000001    0.1369000000000001    0.6720999999999999 # Ca10
  0.8536000000000002    0.1348999999999999    0.5657000000000001 # Ca11
  0.8202000000000003    0.2075999999999998    0.7677999999999998 # Ca12
  0.5081666666666668    0.4702333333333331    0.0054333333333335 # Ca13
  0.5202666666666671    0.4682333333333336    0.8990333333333335 # Ca14
  0.4868666666666671    0.5409333333333335    0.1011333333333333 # Ca15
  0.1748333333333334    0.8035666666666663    0.3387666666666667 # Ca16
  0.1869333333333337    0.8015666666666666    0.2323666666666666 # Ca17
  0.1535333333333337    0.8742666666666666    0.4344666666666667 # Ca18
  0.8631000000000001    0.7045999999999999    0.6720999999999999 # Ca19
  0.8651000000000002    0.7187000000000000    0.5657000000000001 # Ca20
  0.7924000000000004    0.6126000000000000    0.7677999999999998 # Ca21
  0.5297666666666667    0.0379333333333332    0.0054333333333335 # Ca22
  0.5317666666666668    0.0520333333333332    0.8990333333333335 # Ca23
  0.4590666666666668    0.9459333333333330    0.1011333333333333 # Ca24
  0.1964333333333333    0.3712666666666663    0.3387666666666667 # Ca25
  0.1984333333333338    0.3853666666666669    0.2323666666666666 # Ca26
  0.1257333333333338    0.2792666666666670    0.4344666666666667 # Ca27
  0.8631000000000001    0.1584999999999998    0.1720999999999999 # Ca28
  0.8651000000000001    0.1464000000000001    0.0657000000000001 # Ca29
  0.7924000000000001    0.1798000000000000    0.2678000000000000 # Ca30
  0.5297666666666671    0.4918333333333335    0.5054333333333332 # Ca31
  0.5317666666666667    0.4797333333333332    0.3990333333333334 # Ca32
  0.4590666666666667    0.5131333333333331    0.6011333333333334 # Ca33
  0.1964333333333337    0.8251666666666667    0.8387666666666667 # Ca34
  0.1984333333333337    0.8130666666666669    0.7323666666666667 # Ca35
  0.1257333333333336    0.8464666666666668    0.9344666666666664 # Ca36
  0.2954000000000003    0.1369000000000001    0.1720999999999999 # Ca37
  0.2813000000000001    0.1348999999999999    0.0657000000000001 # Ca38
  0.3874000000000001    0.2075999999999998    0.2678000000000000 # Ca39
  0.9620666666666668    0.4702333333333331    0.5054333333333332 # Ca40
  0.9479666666666671    0.4682333333333336    0.3990333333333334 # Ca41
  0.0540666666666669    0.5409333333333335    0.6011333333333334 # Ca42
  0.6287333333333335    0.8035666666666663    0.8387666666666667 # Ca43
  0.6146333333333340    0.8015666666666666    0.7323666666666667 # Ca44
  0.7207333333333340    0.8742666666666666    0.9344666666666664 # Ca45
  0.8415000000000002    0.7045999999999999    0.1720999999999999 # Ca46
  0.8536000000000002    0.7187000000000000    0.0657000000000001 # Ca47
  0.8202000000000002    0.6126000000000000    0.2678000000000000 # Ca48
  0.5081666666666669    0.0379333333333332    0.5054333333333332 # Ca49
  0.5202666666666669    0.0520333333333332    0.3990333333333334 # Ca50
  0.4868666666666667    0.9459333333333330    0.6011333333333334 # Ca51
  0.1748333333333335    0.3712666666666663    0.8387666666666667 # Ca52
  0.1869333333333337    0.3853666666666669    0.7323666666666667 # Ca53
  0.1535333333333337    0.2792666666666670    0.9344666666666664 # Ca54
  0.0000000000000000    0.0000000000000000    0.7542000000000000 # P1
  0.3166000000000003    0.1431000000000003    0.8649000000000000 # P2
  0.3524000000000000    0.1589999999999998    0.9672999999999998 # P3
  0.6666666666666665    0.3333333333333331    0.0875333333333332 # P4
 -0.0167333333333332    0.4764333333333333    0.1982333333333333 # P5
  1.0190666666666670    0.4923333333333330    0.3006333333333334 # P6
  0.3333333333333334    0.6666666666666669    0.4208666666666667 # P7
  0.6499333333333336   -0.1902333333333334    0.5315666666666667 # P8
  0.6857333333333340    0.8256666666666667    0.6339666666666670 # P9
  0.8569000000000001    0.1734999999999998    0.8649000000000000 # P10
 -0.1589999999999998    0.1933999999999999    0.9672999999999998 # P11
  0.5235666666666672    0.5068333333333336    0.1982333333333333 # P12
  0.5076666666666667    0.5267333333333329    0.3006333333333334 # P13
  1.1902333333333339   -0.1598333333333333    0.5315666666666667 # P14
  0.1743333333333336    0.8600666666666666    0.6339666666666670 # P15
  0.8265000000000002    0.6833999999999998    0.8649000000000000 # P16
 -0.1933999999999997   -0.3523999999999997    0.9672999999999998 # P17
  0.4931666666666672    1.0167333333333335    0.1982333333333333 # P18
  0.4732666666666668   -0.0190666666666666    0.3006333333333334 # P19
  1.1598333333333337    0.3500666666666667    0.5315666666666667 # P20
  0.1399333333333334    0.3142666666666665    0.6339666666666670 # P21
  0.0000000000000000    0.0000000000000000    0.2542000000000000 # P22
  0.8265000000000003    0.1431000000000003    0.3649000000000001 # P23
  0.8066000000000003    0.1589999999999998    0.4673000000000000 # P24
  0.6666666666666670    0.3333333333333331    0.5875333333333332 # P25
  0.4931666666666669    0.4764333333333333    0.6982333333333335 # P26
  0.4732666666666668    0.4923333333333330    0.8006333333333332 # P27
  0.3333333333333339    0.6666666666666669    0.9208666666666665 # P28
  0.1598333333333336   -0.1902333333333334    1.0315666666666667 # P29
  0.1399333333333337    0.8256666666666667    0.1339666666666670 # P30
  0.3166000000000001    0.1734999999999998    0.3649000000000001 # P31
  1.3524000000000005    0.1933999999999999    0.4673000000000000 # P32
 -0.0167333333333330    0.5068333333333336    0.6982333333333335 # P33
  1.0190666666666672    0.5267333333333329    0.8006333333333332 # P34
 -0.3500666666666664   -0.1598333333333333    1.0315666666666667 # P35
  0.6857333333333335    0.8600666666666666    0.1339666666666670 # P36
  0.8569000000000004    0.6833999999999998    0.3649000000000001 # P37
  0.8410000000000004   -0.3523999999999997    0.4673000000000000 # P38
  0.5235666666666673    1.0167333333333335    0.6982333333333335 # P39
  0.5076666666666670   -0.0190666666666666    0.8006333333333332 # P40
  0.1902333333333334    0.3500666666666667    1.0315666666666667 # P41
  0.1743333333333331    0.3142666666666665    0.1339666666666670 # P42
  0.2798000000000000    0.0954999999999998    0.8258999999999999 # O1
  0.2449000000000000    0.2317999999999998    0.8783000000000001 # O2
  0.2708000000000000    0.0006000000000001    0.8868000000000001 # O3
  0.4868000000000000    0.2414999999999999    0.8711000000000001 # O4
  0.4017000000000003    0.1953000000000001    1.0074999999999998 # O5
  0.4020000000000003    0.0511999999999997    0.9541999999999998 # O6
  0.4174000000000004    0.3063000000000000    0.9472999999999999 # O7
  0.1817000000000003    0.0801999999999997    0.9628999999999999 # O8
  0.0000000000000000    0.0000000000000000    0.7971999999999999 # O9
 -0.0179999999999999    0.1302999999999999    0.7424999999999998 # O10
 -0.0535333333333331    0.4288333333333335    0.1592333333333333 # O11
 -0.0884333333333334    0.5651333333333329    0.2116333333333334 # O12
 -0.0625333333333334    0.3339333333333332    0.2201333333333333 # O13
  0.1534666666666669    0.5748333333333336    0.2044333333333332 # O14
  1.0683666666666667    0.5286333333333332    0.3408333333333333 # O15
  1.0686666666666671    0.3845333333333334    0.2875333333333334 # O16
  1.0840666666666670    0.6396333333333333    0.2806333333333332 # O17
  0.8483666666666672    0.4135333333333334    0.2962333333333334 # O18
  0.6666666666666665    0.3333333333333331    0.1305333333333334 # O19
  0.6486666666666665    0.4636333333333330    0.0758333333333334 # O20
  0.6131333333333335   -0.2378333333333333    0.4925666666666667 # O21
  0.5782333333333336   -0.1015333333333333    0.5449666666666666 # O22
  0.6041333333333334   -0.3327333333333330    0.5534666666666668 # O23
  0.8201333333333339   -0.0918333333333333    0.5377666666666666 # O24
  0.7350333333333334    0.8619666666666664    0.6741666666666667 # O25
  0.7353333333333336    0.7178666666666664    0.6208666666666666 # O26
  0.7507333333333337    0.9729666666666666    0.6139666666666668 # O27
  0.5150333333333338    0.7468666666666666    0.6295666666666666 # O28
  0.3333333333333334    0.6666666666666669    0.4638666666666668 # O29
  0.3153333333333334    0.7969666666666666    0.4091666666666666 # O30
  0.9045000000000001    0.1843000000000000    0.8258999999999999 # O31
  0.7682000000000002    0.0130999999999998    0.8783000000000001 # O32
  0.9994000000000002    0.2701999999999998    0.8868000000000001 # O33
  0.7585000000000000    0.2452999999999997    0.8711000000000001 # O34
 -0.1953000000000002    0.2063999999999997    1.0074999999999998 # O35
 -0.0511999999999995    0.3508000000000001    0.9541999999999998 # O36
 -0.3062999999999999    0.1110999999999999    0.9472999999999999 # O37
 -0.0802000000000000    0.1014999999999999    0.9628999999999999 # O38
 -0.1302999999999999   -0.1482999999999997    0.7424999999999998 # O39
  0.5711666666666667    0.5176333333333332    0.1592333333333333 # O40
  0.4348666666666670    0.3464333333333335    0.2116333333333334 # O41
  0.6660666666666671    0.6035333333333334    0.2201333333333333 # O42
  0.4251666666666669    0.5786333333333334    0.2044333333333332 # O43
  0.4713666666666672    0.5397333333333333    0.3408333333333333 # O44
  0.6154666666666671    0.6841333333333331    0.2875333333333334 # O45
  0.3603666666666667    0.4444333333333330    0.2806333333333332 # O46
  0.5864666666666666    0.4348333333333330    0.2962333333333334 # O47
  0.5363666666666667    0.1850333333333334    0.0758333333333334 # O48
  1.2378333333333336   -0.1490333333333331    0.4925666666666667 # O49
  1.1015333333333335   -0.3202333333333333    0.5449666666666666 # O50
  1.3327333333333335   -0.0631333333333333    0.5534666666666668 # O51
  1.0918333333333332   -0.0880333333333334    0.5377666666666666 # O52
  0.1380333333333332    0.8730666666666664    0.6741666666666667 # O53
  0.2821333333333336    1.0174666666666663    0.6208666666666666 # O54
  0.0270333333333335    0.7777666666666666    0.6139666666666668 # O55
  0.2531333333333334    0.7681666666666668    0.6295666666666666 # O56
  0.2030333333333337    0.5183666666666665    0.4091666666666666 # O57
  0.8157000000000002    0.7202000000000002    0.8258999999999999 # O58
  0.9868999999999999    0.7550999999999995    0.8783000000000001 # O59
  0.7298000000000004    0.7292000000000000    0.8868000000000001 # O60
  0.7547000000000001    0.5131999999999998    0.8711000000000001 # O61
 -0.2064000000000001   -0.4016999999999998    1.0074999999999998 # O62
 -0.3507999999999998   -0.4019999999999999    0.9541999999999998 # O63
 -0.1111000000000001   -0.4173999999999999    0.9472999999999999 # O64
 -0.1015000000000001   -0.1817000000000002    0.9628999999999999 # O65
  0.1482999999999998    0.0179999999999998    0.7424999999999998 # O66
  0.4823666666666674    1.0535333333333334    0.1592333333333333 # O67
  0.6535666666666665    1.0884333333333327    0.2116333333333334 # O68
  0.3964666666666671    1.0625333333333331    0.2201333333333333 # O69
  0.4213666666666671    0.8465333333333336    0.2044333333333332 # O70
  0.4602666666666670   -0.0683666666666667    0.3408333333333333 # O71
  0.3158666666666667   -0.0686666666666667    0.2875333333333334 # O72
  0.5555666666666670   -0.0840666666666668    0.2806333333333332 # O73
  0.5651666666666672    0.1516333333333335    0.2962333333333334 # O74
  0.8149666666666667    0.3513333333333335    0.0758333333333334 # O75
  1.1490333333333336    0.3868666666666665    0.4925666666666667 # O76
  1.3202333333333336    0.4217666666666666    0.5449666666666666 # O77
  1.0631333333333339    0.3958666666666664    0.5534666666666668 # O78
  1.0880333333333336    0.1798666666666667    0.5377666666666666 # O79
  0.1269333333333335    0.2649666666666664    0.6741666666666667 # O80
 -0.0174666666666667    0.2646666666666663    0.6208666666666666 # O81
  0.2222333333333338    0.2492666666666669    0.6139666666666668 # O82
  0.2318333333333338    0.4849666666666665    0.6295666666666666 # O83
  0.4816333333333332    0.6846666666666666    0.4091666666666666 # O84
  0.8157000000000002    0.0954999999999998    0.3258999999999998 # O85
  0.9869000000000003    0.2317999999999998    0.3782999999999999 # O86
  0.7298000000000006    0.0006000000000001    0.3868000000000000 # O87
  0.7546999999999999    0.2414999999999999    0.3710999999999999 # O88
  0.7936000000000003    0.1953000000000001    0.5075000000000000 # O89
  0.6491999999999999    0.0511999999999997    0.4542000000000002 # O90
  0.8889000000000000    0.3063000000000000    0.4473000000000000 # O91
  0.8985000000000003    0.0801999999999997    0.4628999999999998 # O92
  0.0000000000000000    0.0000000000000000    0.2972000000000002 # O93
  0.1482999999999998    0.1302999999999999    0.2425000000000002 # O94
  0.4823666666666672    0.4288333333333335    0.6592333333333333 # O95
  0.6535666666666669    0.5651333333333329    0.7116333333333332 # O96
  0.3964666666666671    0.3339333333333332    0.7201333333333335 # O97
  0.4213666666666672    0.5748333333333336    0.7044333333333334 # O98
  0.4602666666666669    0.5286333333333332    0.8408333333333333 # O99
  0.3158666666666673    0.3845333333333334    0.7875333333333334 # O100
  0.5555666666666672    0.6396333333333333    0.7806333333333332 # O101
  0.5651666666666673    0.4135333333333334    0.7962333333333332 # O102
  0.6666666666666670    0.3333333333333331    0.6305333333333334 # O103
  0.8149666666666668    0.4636333333333330    0.5758333333333335 # O104
  0.1490333333333338   -0.2378333333333333    0.9925666666666665 # O105
  0.3202333333333337   -0.1015333333333333    1.0449666666666666 # O106
  0.0631333333333335   -0.3327333333333330    1.0534666666666668 # O107
  0.0880333333333333   -0.0918333333333333    1.0377666666666667 # O108
  0.1269333333333335    0.8619666666666664    0.1741666666666669 # O109
 -0.0174666666666667    0.7178666666666664    0.1208666666666669 # O110
  0.2222333333333334    0.9729666666666666    0.1139666666666670 # O111
  0.2318333333333334    0.7468666666666666    0.1295666666666667 # O112
  0.3333333333333339    0.6666666666666669    0.9638666666666668 # O113
  0.4816333333333337    0.7969666666666666    0.9091666666666667 # O114
  0.2798000000000003    0.1843000000000000    0.3258999999999998 # O115
  0.2449000000000002    0.0130999999999998    0.3782999999999999 # O116
  0.2708000000000005    0.2701999999999998    0.3868000000000000 # O117
  0.4868000000000002    0.2452999999999997    0.3710999999999999 # O118
  1.4017000000000006    0.2063999999999997    0.5075000000000000 # O119
  1.4020000000000006    0.3508000000000001    0.4542000000000002 # O120
  1.4174000000000002    0.1110999999999999    0.4473000000000000 # O121
  1.1817000000000004    0.1014999999999999    0.4628999999999998 # O122
 -0.0179999999999998   -0.1482999999999997    0.2425000000000002 # O123
 -0.0535333333333331    0.5176333333333332    0.6592333333333333 # O124
 -0.0884333333333329    0.3464333333333335    0.7116333333333332 # O125
 -0.0625333333333328    0.6035333333333334    0.7201333333333335 # O126
  0.1534666666666671    0.5786333333333334    0.7044333333333334 # O127
  1.0683666666666671    0.5397333333333333    0.8408333333333333 # O128
  1.0686666666666671    0.6841333333333331    0.7875333333333334 # O129
  1.0840666666666667    0.4444333333333330    0.7806333333333332 # O130
  0.8483666666666668    0.4348333333333330    0.7962333333333332 # O131
  0.6486666666666667    0.1850333333333334    0.5758333333333335 # O132
 -0.3868666666666662   -0.1490333333333331    0.9925666666666665 # O133
 -0.4217666666666663   -0.3202333333333333    1.0449666666666666 # O134
 -0.3958666666666666   -0.0631333333333333    1.0534666666666668 # O135
 -0.1798666666666663   -0.0880333333333334    1.0377666666666667 # O136
  0.7350333333333332    0.8730666666666664    0.1741666666666669 # O137
  0.7353333333333337    1.0174666666666663    0.1208666666666669 # O138
  0.7507333333333337    0.7777666666666666    0.1139666666666670 # O139
  0.5150333333333339    0.7681666666666668    0.1295666666666667 # O140
  0.3153333333333334    0.5183666666666665    0.9091666666666667 # O141
  0.9045000000000004    0.7202000000000002    0.3258999999999998 # O142
  0.7682000000000002    0.7550999999999995    0.3782999999999999 # O143
  0.9994000000000005    0.7292000000000000    0.3868000000000000 # O144
  0.7585000000000002    0.5131999999999998    0.3710999999999999 # O145
  0.8047000000000002   -0.4016999999999998    0.5075000000000000 # O146
  0.9488000000000004   -0.4019999999999999    0.4542000000000002 # O147
  0.6937000000000002   -0.4173999999999999    0.4473000000000000 # O148
  0.9198000000000004   -0.1817000000000002    0.4628999999999998 # O149
 -0.1303000000000000    0.0179999999999998    0.2425000000000002 # O150
  0.5711666666666675    1.0535333333333334    0.6592333333333333 # O151
  0.4348666666666670    1.0884333333333334    0.7116333333333332 # O152
  0.6660666666666670    1.0625333333333331    0.7201333333333335 # O153
  0.4251666666666670    0.8465333333333336    0.7044333333333334 # O154
  0.4713666666666668   -0.0683666666666667    0.8408333333333333 # O155
  0.6154666666666671   -0.0686666666666667    0.7875333333333334 # O156
  0.3603666666666666   -0.0840666666666668    0.7806333333333332 # O157
  0.5864666666666672    0.1516333333333335    0.7962333333333332 # O158
  0.5363666666666668    0.3513333333333335    0.5758333333333335 # O159
  0.2378333333333335    0.3868666666666665    0.9925666666666665 # O160
  0.1015333333333336    0.4217666666666666    1.0449666666666666 # O161
  0.3327333333333337    0.3958666666666664    1.0534666666666668 # O162
  0.0918333333333336    0.1798666666666667    1.0377666666666667 # O163
  0.1380333333333333    0.2649666666666664    0.1741666666666669 # O164
  0.2821333333333330    0.2646666666666663    0.1208666666666669 # O165
  0.0270333333333335    0.2492666666666669    0.1139666666666670 # O166
  0.2531333333333333    0.4849666666666665    0.1295666666666667 # O167
  0.2030333333333334    0.6846666666666666    0.9091666666666667 # O168
