POSCAR generated by cell class
1.0
  9.2039956691335405    0.0000000000000000    0.0000000000000000
 -4.6019978345667685    7.9708940657915992    0.0000000000000000
  0.0000000000000000    0.0000000000000000   24.8179883220943189
 15 48 48
Direct
  0.1295000000000000    0.0000000000000000    0.3333333333333333 # 11
  0.4750000000000000    0.1442000000000000    0.3637000000000000 # 12
  0.4032000000000000    0.1588000000000000    0.2574000000000000 # 13
  0.0000000000000000    0.1295000000000000    0.6666666666666666 # 14
  0.8558000000000000    0.3308000000000000    0.6970333333333334 # 15
  0.8411999999999999    0.2444000000000000    0.5907333333333333 # 16
  0.8705000000000002    0.8705000000000002    0.0000000000000000 # 17
  0.6692000000000000    0.5250000000000000    0.0303666666666667 # 18
  0.7556000000000002    0.5968000000000000    0.9240666666666666 # 19
  0.3308000000000000    0.8558000000000000    0.3029666666666667 # 110
  0.2444000000000000    0.8411999999999999    0.4092666666666667 # 111
  0.5250000000000000    0.6692000000000000    0.9696333333333333 # 112
  0.5968000000000000    0.7556000000000002    0.0759333333333334 # 113
  0.1442000000000000    0.4750000000000000    0.6363000000000002 # 114
  0.1588000000000000    0.4032000000000000    0.7426000000000001 # 115
  0.9429999999999999    0.8940000000000000    0.3833000000000000 # 21
  0.4868000000000000    0.1911000000000000    0.4388000000000000 # 22
  0.6919000000000000    0.1551000000000000    0.3651000000000000 # 23
  0.2838000000000000    0.0960000000000000    0.1927000000000000 # 24
  0.4174000000000000    0.3713000000000001    0.2462000000000000 # 25
  0.6031000000000000    0.2034000000000000    0.2301000000000000 # 26
  0.5758000000000000    0.3703000000000001    0.3487000000000000 # 27
  0.2178000000000000    0.1968000000000000    0.3769000000000000 # 28
  0.1060000000000000    0.0490000000000000    0.7166333333333333 # 29
  0.8089000000000000    0.2957000000000000    0.7721333333333333 # 210
  0.8449000000000000    0.5368000000000002    0.6984333333333334 # 211
  0.9040000000000000    0.1878000000000000    0.5260333333333334 # 212
  0.6287000000000000    0.0461000000000000    0.5795333333333333 # 213
  0.7966000000000000    0.3997000000000000    0.5634333333333333 # 214
  0.6297000000000000    0.2055000000000000    0.6820333333333334 # 215
  0.8032000000000000    0.0210000000000000    0.7102333333333334 # 216
  0.9510000000000000    0.0569999999999999    0.0499666666666667 # 217
  0.7043000000000001    0.5132000000000000    0.1054666666666666 # 218
  0.4632000000000000    0.3081000000000000    0.0317666666666667 # 219
  0.8122000000000001    0.7161999999999999    0.8593666666666666 # 220
  0.9539000000000000    0.5826000000000000    0.9128666666666668 # 221
  0.6002999999999999    0.3969000000000000    0.8967666666666668 # 222
  0.7945000000000000    0.4242000000000001    0.0153666666666668 # 223
  0.9790000000000000    0.7822000000000000    0.0435666666666668 # 224
  0.0490000000000000    0.1060000000000000    0.2833666666666667 # 225
  0.2957000000000000    0.8089000000000000    0.2278666666666667 # 226
  0.5368000000000002    0.8449000000000000    0.3015666666666667 # 227
  0.1878000000000000    0.9040000000000000    0.4739666666666668 # 228
  0.0461000000000000    0.6287000000000000    0.4204666666666667 # 229
  0.3997000000000000    0.7966000000000000    0.4365666666666667 # 230
  0.2055000000000000    0.6297000000000000    0.3179666666666667 # 231
  0.0210000000000000    0.8032000000000000    0.2897666666666666 # 232
  0.0569999999999999    0.9510000000000000    0.9500333333333334 # 233
  0.5132000000000000    0.7043000000000001    0.8945333333333334 # 234
  0.3081000000000000    0.4632000000000000    0.9682333333333332 # 235
  0.7161999999999999    0.8122000000000001    0.1406333333333334 # 236
  0.5826000000000000    0.9539000000000000    0.0871333333333333 # 237
  0.3969000000000000    0.6002999999999999    0.1032333333333333 # 238
  0.4242000000000001    0.7945000000000000    0.9846333333333334 # 239
  0.7822000000000000    0.9790000000000000    0.9564333333333334 # 240
  0.8940000000000000    0.9429999999999999    0.6167000000000000 # 241
  0.1911000000000000    0.4868000000000000    0.5612000000000000 # 242
  0.1551000000000000    0.6919000000000000    0.6349000000000000 # 243
  0.0960000000000000    0.2838000000000000    0.8073000000000000 # 244
  0.3713000000000001    0.4174000000000000    0.7538000000000000 # 245
  0.2034000000000000    0.6031000000000000    0.7699000000000000 # 246
  0.3703000000000001    0.5758000000000000    0.6513000000000000 # 247
  0.1968000000000000    0.2178000000000000    0.6231000000000000 # 248
  0.8390000000000000    0.8420000000000000    0.4127000000000000 # 31
  0.5134000000000000    0.2243000000000000    0.4833000000000000 # 32
  0.8118000000000000    0.1551000000000000    0.3649000000000000 # 33
  0.2136000000000000    0.0527000000000000    0.1501000000000000 # 34
  0.4447000000000000    0.5061000000000000    0.2436000000000000 # 35
  0.7389000000000000    0.2386000000000000    0.2132000000000000 # 36
  0.6451000000000000    0.5191000000000000    0.3466000000000001 # 37
  0.2423000000000000    0.3188000000000000    0.4018000000000000 # 38
  0.1580000000000001    0.9970000000000000    0.7460333333333334 # 39
  0.7757000000000002    0.2891000000000001    0.8166333333333334 # 310
  0.8449000000000000    0.6567000000000000    0.6982333333333334 # 311
  0.9473000000000000    0.1609000000000000    0.4834333333333334 # 312
  0.4939000000000000    0.9386000000000000    0.5769333333333334 # 313
  0.7614000000000000    0.5003000000000000    0.5465333333333334 # 314
  0.4809000000000000    0.1260000000000000    0.6799333333333334 # 315
  0.6812000000000000    0.9235000000000000    0.7351333333333334 # 316
  0.0029999999999999    0.1610000000000000    0.0793666666666666 # 317
  0.7109000000000000    0.4866000000000000    0.1499666666666666 # 318
  0.3433000000000000    0.1882000000000000    0.0315666666666667 # 319
  0.8391000000000000    0.7864000000000000    0.8167666666666668 # 320
  0.0613999999999999    0.5553000000000000    0.9102666666666666 # 321
  0.4997000000000000    0.2611000000000000    0.8798666666666666 # 322
  0.8740000000000000    0.3549000000000000    0.0132666666666668 # 323
  0.0765000000000000    0.7577000000000002    0.0684666666666667 # 324
  0.9970000000000000    0.1580000000000001    0.2539666666666667 # 325
  0.2891000000000001    0.7757000000000002    0.1833666666666667 # 326
  0.6567000000000000    0.8449000000000000    0.3017666666666667 # 327
  0.1609000000000000    0.9473000000000000    0.5165666666666666 # 328
  0.9386000000000000    0.4939000000000000    0.4230666666666666 # 329
  0.5003000000000000    0.7614000000000000    0.4534666666666668 # 330
  0.1260000000000000    0.4809000000000000    0.3200666666666666 # 331
  0.9235000000000000    0.6812000000000000    0.2648666666666667 # 332
  0.1610000000000000    0.0029999999999999    0.9206333333333334 # 333
  0.4866000000000000    0.7109000000000000    0.8500333333333334 # 334
  0.1882000000000000    0.3433000000000000    0.9684333333333334 # 335
  0.7864000000000000    0.8391000000000000    0.1832333333333334 # 336
  0.5553000000000000    0.0613999999999999    0.0897333333333332 # 337
  0.2611000000000000    0.4997000000000000    0.1201333333333334 # 338
  0.3549000000000000    0.8740000000000000    0.9867333333333334 # 339
  0.7577000000000002    0.0765000000000000    0.9315333333333334 # 340
  0.8420000000000000    0.8390000000000000    0.5873000000000002 # 341
  0.2243000000000000    0.5134000000000000    0.5167000000000002 # 342
  0.1551000000000000    0.8118000000000000    0.6351000000000000 # 343
  0.0527000000000000    0.2136000000000000    0.8499000000000000 # 344
  0.5061000000000000    0.4447000000000000    0.7564000000000000 # 345
  0.2386000000000000    0.7389000000000000    0.7868000000000002 # 346
  0.5191000000000000    0.6451000000000000    0.6534000000000000 # 347
  0.3188000000000000    0.2423000000000000    0.5982000000000002 # 348
