$cell vectors
1.0
  7.1066966560007936    0.0000000000000000    0.0000000000000000
 -3.5533483280003937    6.1545798410866119    0.0000000000000000
  0.0000000000000000    0.0000000000000000   17.0866919599939209
 45 6
Direct
  0.4004000000000003    0.2843000000000003    0.9633000000000000 # Pd1
  0.2579999999999997    0.2380999999999997    0.7953000000000001 # Pd2
  0.0000000000000000    0.0000000000000000    0.0794000000000000 # Pd3
  0.0000000000000000    0.0000000000000000    0.5000000000000001 # Pd4
  0.0670666666666670    0.6176333333333333    0.2966333333333333 # Pd5
  0.9246666666666663    0.5714333333333328    0.1286333333333333 # Pd6
  0.6666666666666667    0.3333333333333330    0.4127333333333331 # Pd7
  0.6666666666666667    0.3333333333333330    0.8333333333333331 # Pd8
  0.7337333333333330    0.9509666666666664    0.6299666666666670 # Pd9
  0.5913333333333328    0.9047666666666666    0.4619666666666667 # Pd10
  0.3333333333333331    0.6666666666666669    0.7460666666666664 # Pd11
  0.3333333333333331    0.6666666666666669    0.1666666666666668 # Pd12
  0.5995999999999997    0.7156999999999998    0.0367000000000000 # Pd13
  0.7419999999999998    0.7618999999999994    0.2047000000000000 # Pd14
  0.0000000000000000    0.0000000000000000    0.9206000000000001 # Pd15
  0.2662666666666669    0.0490333333333336    0.3700333333333334 # Pd16
  0.4086666666666671    0.0952333333333333    0.5380333333333334 # Pd17
  0.6666666666666667    0.3333333333333330    0.2539333333333333 # Pd18
  0.9329333333333336    0.3823666666666665    0.7033666666666667 # Pd19
  0.0753333333333330    0.4285666666666663    0.8713666666666667 # Pd20
  0.3333333333333331    0.6666666666666669    0.5872666666666670 # Pd21
  0.7157000000000000    0.1160999999999997    0.9633000000000000 # Pd22
  0.7619000000000000    0.0198999999999999    0.7953000000000001 # Pd23
  0.3823666666666667    0.4494333333333327    0.2966333333333333 # Pd24
  0.4285666666666668    0.3532333333333330    0.1286333333333333 # Pd25
  0.0490333333333330    0.7827666666666666    0.6299666666666670 # Pd26
  0.0952333333333331    0.6865666666666668    0.4619666666666667 # Pd27
  0.2842999999999996    0.8838999999999994    0.0367000000000000 # Pd28
  0.2380999999999994    0.9800999999999991    0.2047000000000000 # Pd29
  0.9509666666666668    0.2172333333333333    0.3700333333333334 # Pd30
  0.9047666666666673    0.3134333333333331    0.5380333333333334 # Pd31
  0.6176333333333335    0.5505666666666663    0.7033666666666667 # Pd32
  0.5714333333333335    0.6467666666666662    0.8713666666666667 # Pd33
  0.8839000000000005    0.5995999999999999    0.9633000000000000 # Pd34
  0.9800999999999997    0.7419999999999994    0.7953000000000001 # Pd35
  0.5505666666666664    0.9329333333333329    0.2966333333333333 # Pd36
  0.6467666666666670    0.0753333333333334    0.1286333333333333 # Pd37
  0.2172333333333337    0.2662666666666669    0.6299666666666670 # Pd38
  0.3134333333333330    0.4086666666666664    0.4619666666666667 # Pd39
  0.1161000000000002    0.4004000000000000    0.0367000000000000 # Pd40
  0.0198999999999998    0.2579999999999996    0.2047000000000000 # Pd41
  0.7827666666666662    0.7337333333333329    0.3700333333333334 # Pd42
  0.6865666666666670    0.5913333333333335    0.5380333333333334 # Pd43
  0.4494333333333335    0.0670666666666670    0.7033666666666667 # Pd44
  0.3532333333333330    0.9246666666666665    0.8713666666666667 # Pd45
  0.0000000000000000    0.0000000000000000    0.2855000000000000 # P1
  0.6666666666666667    0.3333333333333330    0.6188333333333332 # P2
  0.3333333333333331    0.6666666666666669    0.9521666666666667 # P3
  0.0000000000000000    0.0000000000000000    0.7144999999999999 # P4
  0.6666666666666667    0.3333333333333330    0.0478333333333333 # P5
  0.3333333333333331    0.6666666666666669    0.3811666666666667 # P6
