POSCAR generated by cell class
1.0
  9.0699957321861380    0.0000000000000000    0.0000000000000000
 -4.5349978660930672    7.8548467162896358    0.0000000000000000
  0.0000000000000000    0.0000000000000000    4.9839976548198104
 6 3 18
Direct
  0.6230000000000000    0.0000000000000000    0.0000000000000000 # 11
  0.2855000000000000    0.0000000000000000    0.5000000000000000 # 12
  0.0000000000000000    0.6230000000000000    0.0000000000000000 # 13
  0.0000000000000000    0.2855000000000000    0.5000000000000000 # 14
  0.3770000000000000    0.3770000000000000    0.0000000000000000 # 15
  0.7145000000000000    0.7145000000000000    0.5000000000000000 # 16
  0.0000000000000000    0.0000000000000000    0.0000000000000000 # 21
  0.3333333333333333    0.6666666666666666    0.4987000000000000 # 22
  0.6666666666666666    0.3333333333333333    0.5013000000000000 # 23
  0.0877000000000000    0.8804999999999999    0.7731000000000000 # 31
  0.4606000000000000    0.5950000000000000    0.7417000000000000 # 32
  0.2194000000000000    0.7575000000000000    0.2789000000000000 # 33
  0.1195000000000000    0.2072000000000000    0.7731000000000000 # 34
  0.4050000000000001    0.8656000000000001    0.7417000000000000 # 35
  0.2425000000000000    0.4619000000000000    0.2789000000000000 # 36
  0.7927999999999999    0.9123000000000000    0.7731000000000000 # 37
  0.1344000000000000    0.5394000000000000    0.7417000000000000 # 38
  0.5381000000000000    0.7806000000000000    0.2789000000000000 # 39
  0.2072000000000000    0.1195000000000000    0.2269000000000000 # 310
  0.8656000000000001    0.4050000000000001    0.2583000000000000 # 311
  0.4619000000000000    0.2425000000000000    0.7211000000000000 # 312
  0.9123000000000000    0.7927999999999999    0.2269000000000000 # 313
  0.5394000000000000    0.1344000000000000    0.2583000000000000 # 314
  0.7806000000000000    0.5381000000000000    0.7211000000000000 # 315
  0.8804999999999999    0.0877000000000000    0.2269000000000000 # 316
  0.5950000000000000    0.4606000000000000    0.2583000000000000 # 317
  0.7575000000000000    0.2194000000000000    0.7211000000000000 # 318
