$cell vectors
1.0
  5.9999971767493738    0.0000000000000000    0.0000000000000000
 -2.9999985883746869    5.1961499776998687    0.0000000000000000
  0.0000000000000000    0.0000000000000000   14.3299932571364206
 6 6 9
Direct
  0.0000000000000000    0.0000000000000000    0.7444999999999999 # K1
  0.0000000000000000    0.0000000000000000    0.2379999999999999 # K2
  0.6666666666666667    0.3333333333333334    0.0778333333333334 # K3
  0.6666666666666667    0.3333333333333334    0.5713333333333330 # K4
  0.3333333333333334    0.6666666666666667    0.4111666666666668 # K5
  0.3333333333333334    0.6666666666666667    0.9046666666666667 # K6
  0.0000000000000000    0.0000000000000000    0.0000000000000000 # Sn1
  0.0000000000000000    0.0000000000000000    0.4820000000000001 # Sn2
  0.6666666666666667    0.3333333333333334    0.3333333333333335 # Sn3
  0.6666666666666667    0.3333333333333334    0.8153333333333330 # Sn4
  0.3333333333333334    0.6666666666666667    0.6666666666666670 # Sn5
  0.3333333333333334    0.6666666666666667    0.1486666666666666 # Sn6
  0.1684999999999998    0.3380000000000002    0.0617999999999999 # O1
  0.8351666666666673    0.6713333333333336    0.3951333333333333 # O2
  0.5018333333333331    0.0046666666666668    0.7284666666666668 # O3
  0.6620000000000003    0.8304999999999999    0.0617999999999999 # O4
  0.3286666666666669    0.1638333333333331    0.3951333333333333 # O5
  0.9953333333333336    0.4971666666666664    0.7284666666666668 # O6
  0.1695000000000001    0.8315000000000003    0.0617999999999999 # O7
  0.8361666666666667    0.1648333333333335    0.3951333333333333 # O8
  0.5028333333333334    0.4981666666666669    0.7284666666666668 # O9
