$cell vectors
1.0
  5.4869974181373005    0.0000000000000000    0.0000000000000000
 -2.7434987090686476    4.7518791546065291    0.0000000000000000
  0.0000000000000000    0.0000000000000000    9.1559956917195429
 3 3 9
Direct
  0.0000000000000000    0.0000000000000000    0.0000000000000000 # K1
  0.6666666666666673    0.3333333333333337    0.3333333333333331 # K2
  0.3333333333333329    0.6666666666666663    0.6666666666666669 # K3
  0.0000000000000000    0.0000000000000000    0.4050000000000000 # N1
  0.6666666666666673    0.3333333333333337    0.7383333333333336 # N2
  0.3333333333333329    0.6666666666666663    0.0716666666666668 # N3
  0.1310000000000004   -0.1310000000000001    0.4339999999999999 # O1
  0.7976666666666676    0.2023333333333336    0.7673333333333336 # O2
  0.4643333333333338    0.5356666666666674    0.1006666666666668 # O3
  0.1310000000000000    0.2620000000000003    0.4339999999999999 # O4
  0.7976666666666667    0.5953333333333329    0.7673333333333336 # O5
  0.4643333333333329    0.9286666666666666    0.1006666666666668 # O6
 -0.2620000000000005   -0.1310000000000001    0.4339999999999999 # O7
  0.4046666666666668    0.2023333333333336    0.7673333333333336 # O8
  0.0713333333333330    0.5356666666666674    0.1006666666666668 # O9
