$cell vectors
1.0
  4.3367979593544508    0.0000000000000000    0.0000000000000000
 -2.1683989796772254    3.7557772038814652    0.0000000000000000
  0.0000000000000000    0.0000000000000000    8.3396960758227934
 9 6
Direct
  0.5467999999999996    0.3972000000000003    0.0000000000000000 # O1
  0.1484999999999996    0.6003999999999994    0.0774999999999998 # O2
  0.0045000000000005    0.1608000000000002    0.8709999999999996 # O3
  0.6027999999999993    0.1496000000000000    0.3333333333333333 # O4
  0.3995999999999998    0.5481000000000005    0.4108333333333332 # O5
  0.8391999999999997    0.8436999999999997    0.2043333333333335 # O6
  0.8503999999999995    0.4531999999999999    0.6666666666666666 # O7
  0.4519000000000007    0.8515000000000005    0.7441666666666664 # O8
  0.1563000000000012    0.9955000000000005    0.5376666666666670 # O9
  0.2229000000000006    0.3926000000000006    0.9810000000000001 # B1
  0.8280999999999993    0.6030999999999995    0.0921000000000002 # B2
  0.6074000000000001    0.8303000000000004    0.3143333333333334 # B3
  0.3969000000000004    0.2250000000000001    0.4254333333333336 # B4
  0.1696999999999995    0.7770999999999993    0.6476666666666667 # B5
  0.7750000000000001    0.1719000000000005    0.7587666666666669 # B6
