POSCAR generated by cell class
1.0
  9.3961955786954121    0.0000000000000000    0.0000000000000000
 -4.6980977893477043    8.1373440700772512    0.0000000000000000
  0.0000000000000000    0.0000000000000000    7.2224966015120602
 2 36
Direct
  0.3333333333333333    0.6666666666666666    0.0074000000000001 # 11
  0.6666666666666666    0.3333333333333333    0.9925999999999999 # 12
  0.2392000000000000    0.7720000000000000    0.1565000000000001 # 21
  0.1130000000000000    0.7798000000000002    0.1618000000000000 # 22
  0.0006000000000000    0.7925000000000000    0.1733000000000000 # 23
  0.4029000000000000    0.5433000000000000    0.8381000000000000 # 24
  0.3520000000000000    0.4717000000000000    0.6916000000000000 # 25
  0.3099000000000000    0.4023000000000000    0.5566000000000000 # 26
  0.7608000000000000    0.2280000000000000    0.8435000000000000 # 27
  0.8870000000000000    0.2202000000000000    0.8382000000000002 # 28
  0.9994000000000000    0.2075000000000000    0.8267000000000000 # 29
  0.5971000000000000    0.4567000000000000    0.1619000000000000 # 210
  0.6480000000000000    0.5283000000000000    0.3084000000000000 # 211
  0.6901000000000002    0.5977000000000000    0.4434000000000001 # 212
  0.2280000000000000    0.4672000000000000    0.1565000000000001 # 213
  0.2202000000000000    0.3332000000000000    0.1618000000000000 # 214
  0.2075000000000000    0.2081000000000000    0.1733000000000000 # 215
  0.4567000000000000    0.8596000000000000    0.8381000000000000 # 216
  0.5283000000000000    0.8803000000000000    0.6916000000000000 # 217
  0.5977000000000000    0.9076000000000000    0.5566000000000000 # 218
  0.7720000000000000    0.5328000000000002    0.8435000000000000 # 219
  0.7798000000000002    0.6667999999999999    0.8382000000000002 # 220
  0.7925000000000000    0.7919000000000002    0.8267000000000000 # 221
  0.5433000000000000    0.1404000000000000    0.1619000000000000 # 222
  0.4717000000000000    0.1197000000000000    0.3084000000000000 # 223
  0.4023000000000000    0.0924000000000000    0.4434000000000001 # 224
  0.5328000000000002    0.7608000000000000    0.1565000000000001 # 225
  0.6667999999999999    0.8870000000000000    0.1618000000000000 # 226
  0.7919000000000002    0.9994000000000000    0.1733000000000000 # 227
  0.1404000000000000    0.5971000000000000    0.8381000000000000 # 228
  0.1197000000000000    0.6480000000000000    0.6916000000000000 # 229
  0.0924000000000000    0.6901000000000002    0.5566000000000000 # 230
  0.4672000000000000    0.2392000000000000    0.8435000000000000 # 231
  0.3332000000000000    0.1130000000000000    0.8382000000000002 # 232
  0.2081000000000000    0.0006000000000000    0.8267000000000000 # 233
  0.8596000000000000    0.4029000000000000    0.1619000000000000 # 234
  0.8803000000000000    0.3520000000000000    0.3084000000000000 # 235
  0.9076000000000000    0.3099000000000000    0.4434000000000001 # 236
