POSCAR generated by cell class
1.0
 12.1969942608020201    0.0000000000000000    0.0000000000000000
 -6.0984971304010074   10.5629068796675512    0.0000000000000000
  0.0000000000000000    0.0000000000000000   19.3589908907818504
 3 21 63 18 84
Direct
  0.0000000000000000    0.0000000000000000    0.0000000000000000 # 11
  0.6666666666666666    0.3333333333333333    0.0296000000000000 # 12
  0.3333333333333333    0.6666666666666666    0.0296000000000000 # 13
  0.0000000000000000    0.0000000000000000    0.2376000000000000 # 21
  0.6666666666666666    0.3333333333333333    0.2532000000000000 # 22
  0.0000000000000000    0.0000000000000000    0.7782000000000000 # 23
  0.6666666666666666    0.3333333333333333    0.7950000000000002 # 24
  0.0000000000000000    0.0000000000000000    0.5074000000000000 # 25
  0.6666666666666666    0.3333333333333333    0.5266000000000000 # 26
  0.6699000000000002    0.0000000000000000    0.6659000000000002 # 27
  0.6672000000000000    0.0000000000000000    0.9387000000000000 # 28
  0.3366000000000000    0.0000000000000000    0.3673000000000000 # 29
  0.3344000000000000    0.0000000000000000    0.0933000000000000 # 210
  0.0000000000000000    0.6699000000000002    0.6659000000000002 # 211
  0.0000000000000000    0.6672000000000000    0.9387000000000000 # 212
  0.0000000000000000    0.3366000000000000    0.3673000000000000 # 213
  0.0000000000000000    0.3344000000000000    0.0933000000000000 # 214
  0.3301000000000000    0.3301000000000000    0.6659000000000002 # 215
  0.3328000000000000    0.3328000000000000    0.9387000000000000 # 216
  0.6634000000000000    0.6634000000000000    0.3673000000000000 # 217
  0.6656000000000000    0.6656000000000000    0.0933000000000000 # 218
  0.3333333333333333    0.6666666666666666    0.2532000000000000 # 219
  0.3333333333333333    0.6666666666666666    0.7950000000000002 # 220
  0.3333333333333333    0.6666666666666666    0.5266000000000000 # 221
  0.5152000000000000    0.0000000000000000    0.5165999999999999 # 31
  0.1591000000000000    0.3340000000000001    0.5147000000000002 # 32
  0.8128000000000000    0.0000000000000000    0.3789000000000000 # 33
  0.4788000000000000    0.3318000000000000    0.3846000000000000 # 34
  0.1892000000000000    0.0000000000000000    0.9294000000000000 # 35
  0.8470000000000000    0.3359000000000000    0.9339000000000000 # 36
  0.1759000000000000    0.0000000000000000    0.6468000000000002 # 37
  0.8448000000000000    0.3337000000000000    0.6526999999999999 # 38
  0.8236000000000000    0.0000000000000000    0.0957000000000000 # 39
  0.4783000000000000    0.3312000000000000    0.1034000000000000 # 310
  0.4879000000000000    0.0000000000000000    0.7927999999999999 # 311
  0.1515000000000000    0.3345000000000001    0.7941000000000000 # 312
  0.5180000000000000    0.0000000000000000    0.2357000000000000 # 313
  0.1811000000000000    0.3334000000000000    0.2391000000000000 # 314
  0.0000000000000000    0.5152000000000000    0.5165999999999999 # 315
  0.6660000000000001    0.8250999999999999    0.5147000000000002 # 316
  0.0000000000000000    0.8128000000000000    0.3789000000000000 # 317
  0.6682000000000000    0.1470000000000000    0.3846000000000000 # 318
  0.0000000000000000    0.1892000000000000    0.9294000000000000 # 319
  0.6641000000000000    0.5111000000000000    0.9339000000000000 # 320
  0.0000000000000000    0.1759000000000000    0.6468000000000002 # 321
  0.6663000000000000    0.5111000000000000    0.6526999999999999 # 322
  0.0000000000000000    0.8236000000000000    0.0957000000000000 # 323
  0.6688000000000000    0.1471000000000000    0.1034000000000000 # 324
  0.0000000000000000    0.4879000000000000    0.7927999999999999 # 325
  0.6655000000000000    0.8169999999999999    0.7941000000000000 # 326
  0.0000000000000000    0.5180000000000000    0.2357000000000000 # 327
  0.6666000000000000    0.8477000000000000    0.2391000000000000 # 328
  0.4848000000000000    0.4848000000000000    0.5165999999999999 # 329
  0.1749000000000000    0.8409000000000000    0.5147000000000002 # 330
  0.1872000000000000    0.1872000000000000    0.3789000000000000 # 331
  0.8530000000000000    0.5212000000000000    0.3846000000000000 # 332
  0.8108000000000000    0.8108000000000000    0.9294000000000000 # 333
  0.4889000000000000    0.1530000000000000    0.9339000000000000 # 334
  0.8241000000000002    0.8241000000000002    0.6468000000000002 # 335
  0.4889000000000000    0.1552000000000000    0.6526999999999999 # 336
  0.1764000000000000    0.1764000000000000    0.0957000000000000 # 337
  0.8529000000000000    0.5217000000000002    0.1034000000000000 # 338
  0.5121000000000000    0.5121000000000000    0.7927999999999999 # 339
  0.1830000000000000    0.8485000000000000    0.7941000000000000 # 340
  0.4820000000000000    0.4820000000000000    0.2357000000000000 # 341
  0.1523000000000000    0.8189000000000000    0.2391000000000000 # 342
  0.3340000000000001    0.1591000000000000    0.5147000000000002 # 343
  0.3318000000000000    0.4788000000000000    0.3846000000000000 # 344
  0.3359000000000000    0.8470000000000000    0.9339000000000000 # 345
  0.3337000000000000    0.8448000000000000    0.6526999999999999 # 346
  0.3312000000000000    0.4783000000000000    0.1034000000000000 # 347
  0.3345000000000001    0.1515000000000000    0.7941000000000000 # 348
  0.3334000000000000    0.1811000000000000    0.2391000000000000 # 349
  0.8250999999999999    0.6660000000000001    0.5147000000000002 # 350
  0.1470000000000000    0.6682000000000000    0.3846000000000000 # 351
  0.5111000000000000    0.6641000000000000    0.9339000000000000 # 352
  0.5111000000000000    0.6663000000000000    0.6526999999999999 # 353
  0.1471000000000000    0.6688000000000000    0.1034000000000000 # 354
  0.8169999999999999    0.6655000000000000    0.7941000000000000 # 355
  0.8477000000000000    0.6666000000000000    0.2391000000000000 # 356
  0.8409000000000000    0.1749000000000000    0.5147000000000002 # 357
  0.5212000000000000    0.8530000000000000    0.3846000000000000 # 358
  0.1530000000000000    0.4889000000000000    0.9339000000000000 # 359
  0.1552000000000000    0.4889000000000000    0.6526999999999999 # 360
  0.5217000000000002    0.8529000000000000    0.1034000000000000 # 361
  0.8485000000000000    0.1830000000000000    0.7941000000000000 # 362
  0.8189000000000000    0.1523000000000000    0.2391000000000000 # 363
  0.6858000000000000    0.0000000000000000    0.4658000000000000 # 41
  0.3396000000000000    0.0000000000000000    0.8636000000000001 # 42
  0.3486000000000001    0.0000000000000000    0.5674000000000000 # 43
  0.6620000000000000    0.0000000000000000    0.3131000000000000 # 44
  0.6753000000000000    0.0000000000000000    0.1666000000000000 # 45
  0.3262000000000000    0.0000000000000000    0.7175000000000000 # 46
  0.0000000000000000    0.6858000000000000    0.4658000000000000 # 47
  0.0000000000000000    0.3396000000000000    0.8636000000000001 # 48
  0.0000000000000000    0.3486000000000001    0.5674000000000000 # 49
  0.0000000000000000    0.6620000000000000    0.3131000000000000 # 410
  0.0000000000000000    0.6753000000000000    0.1666000000000000 # 411
  0.0000000000000000    0.3262000000000000    0.7175000000000000 # 412
  0.3142000000000000    0.3142000000000000    0.4658000000000000 # 413
  0.6604000000000000    0.6604000000000000    0.8636000000000001 # 414
  0.6514000000000000    0.6514000000000000    0.5674000000000000 # 415
  0.3380000000000001    0.3380000000000001    0.3131000000000000 # 416
  0.3247000000000000    0.3247000000000000    0.1666000000000000 # 417
  0.6738000000000000    0.6738000000000000    0.7175000000000000 # 418
  0.0000000000000000    0.0000000000000000    0.1631000000000000 # 51
  0.8884000000000000    0.0000000000000000    0.2636000000000000 # 52
  0.6666666666666666    0.3333333333333333    0.3301000000000000 # 53
  0.6683000000000000    0.2201000000000000    0.2318000000000000 # 54
  0.0000000000000000    0.0000000000000000    0.7026000000000000 # 55
  0.1140000000000000    0.0000000000000000    0.8064000000000000 # 56
  0.6666666666666666    0.3333333333333333    0.8717000000000000 # 57
  0.5502000000000000    0.2158000000000000    0.7701000000000000 # 58
  0.0000000000000000    0.0000000000000000    0.4317000000000000 # 59
  0.1130000000000000    0.0000000000000000    0.5320000000000000 # 510
  0.6666666666666666    0.3333333333333333    0.6042999999999999 # 511
  0.6720000000000002    0.2209000000000000    0.5021000000000000 # 512
  0.6771000000000000    0.0000000000000000    0.7416000000000001 # 513
  0.5517000000000000    0.0000000000000000    0.6460000000000000 # 514
  0.7834000000000000    0.1167000000000000    0.6403000000000000 # 515
  0.6677999999999999    0.0000000000000000    0.0145999999999999 # 516
  0.5527000000000000    0.0000000000000000    0.9142000000000000 # 517
  0.7808000000000002    0.1154000000000000    0.9133000000000000 # 518
  0.3384000000000000    0.0000000000000000    0.2897000000000000 # 519
  0.4475000000000000    0.0000000000000000    0.3971000000000000 # 520
  0.3356000000000000    0.1125000000000000    0.3934000000000001 # 521
  0.3358000000000000    0.0000000000000000    0.0167000000000000 # 522
  0.4461000000000000    0.0000000000000000    0.1203000000000000 # 523
  0.3342000000000000    0.1123000000000000    0.1204000000000000 # 524
  0.0000000000000000    0.8884000000000000    0.2636000000000000 # 525
  0.7799000000000001    0.4482000000000000    0.2318000000000000 # 526
  0.0000000000000000    0.1140000000000000    0.8064000000000000 # 527
  0.7842000000000000    0.3344000000000000    0.7701000000000000 # 528
  0.0000000000000000    0.1130000000000000    0.5320000000000000 # 529
  0.7791000000000000    0.4511000000000000    0.5021000000000000 # 530
  0.0000000000000000    0.6771000000000000    0.7416000000000001 # 531
  0.0000000000000000    0.5517000000000000    0.6460000000000000 # 532
  0.8833000000000000    0.6667000000000000    0.6403000000000000 # 533
  0.0000000000000000    0.6677999999999999    0.0145999999999999 # 534
  0.0000000000000000    0.5527000000000000    0.9142000000000000 # 535
  0.8846000000000002    0.6654000000000000    0.9133000000000000 # 536
  0.0000000000000000    0.3384000000000000    0.2897000000000000 # 537
  0.0000000000000000    0.4475000000000000    0.3971000000000000 # 538
  0.8875000000000000    0.2231000000000000    0.3934000000000001 # 539
  0.0000000000000000    0.3358000000000000    0.0167000000000000 # 540
  0.0000000000000000    0.4461000000000000    0.1203000000000000 # 541
  0.8876999999999999    0.2219000000000000    0.1204000000000000 # 542
  0.1116000000000000    0.1116000000000000    0.2636000000000000 # 543
  0.5518000000000000    0.3317000000000000    0.2318000000000000 # 544
  0.8860000000000000    0.8860000000000000    0.8064000000000000 # 545
  0.6656000000000000    0.4498000000000000    0.7701000000000000 # 546
  0.8870000000000000    0.8870000000000000    0.5320000000000000 # 547
  0.5489000000000002    0.3280000000000000    0.5021000000000000 # 548
  0.3229000000000001    0.3229000000000001    0.7416000000000001 # 549
  0.4483000000000000    0.4483000000000000    0.6460000000000000 # 550
  0.3333000000000000    0.2166000000000000    0.6403000000000000 # 551
  0.3322000000000000    0.3322000000000000    0.0145999999999999 # 552
  0.4473000000000000    0.4473000000000000    0.9142000000000000 # 553
  0.3346000000000000    0.2192000000000000    0.9133000000000000 # 554
  0.6616000000000000    0.6616000000000000    0.2897000000000000 # 555
  0.5525000000000000    0.5525000000000000    0.3971000000000000 # 556
  0.7769000000000001    0.6644000000000000    0.3934000000000001 # 557
  0.6642000000000000    0.6642000000000000    0.0167000000000000 # 558
  0.5538999999999999    0.5538999999999999    0.1203000000000000 # 559
  0.7781000000000000    0.6657999999999999    0.1204000000000000 # 560
  0.3333333333333333    0.6666666666666666    0.3301000000000000 # 561
  0.2201000000000000    0.6683000000000000    0.2318000000000000 # 562
  0.3333333333333333    0.6666666666666666    0.8717000000000000 # 563
  0.2158000000000000    0.5502000000000000    0.7701000000000000 # 564
  0.3333333333333333    0.6666666666666666    0.6042999999999999 # 565
  0.2209000000000000    0.6720000000000002    0.5021000000000000 # 566
  0.1167000000000000    0.7834000000000000    0.6403000000000000 # 567
  0.1154000000000000    0.7808000000000002    0.9133000000000000 # 568
  0.1125000000000000    0.3356000000000000    0.3934000000000001 # 569
  0.1123000000000000    0.3342000000000000    0.1204000000000000 # 570
  0.4482000000000000    0.7799000000000001    0.2318000000000000 # 571
  0.3344000000000000    0.7842000000000000    0.7701000000000000 # 572
  0.4511000000000000    0.7791000000000000    0.5021000000000000 # 573
  0.6667000000000000    0.8833000000000000    0.6403000000000000 # 574
  0.6654000000000000    0.8846000000000002    0.9133000000000000 # 575
  0.2231000000000000    0.8875000000000000    0.3934000000000001 # 576
  0.2219000000000000    0.8876999999999999    0.1204000000000000 # 577
  0.3317000000000000    0.5518000000000000    0.2318000000000000 # 578
  0.4498000000000000    0.6656000000000000    0.7701000000000000 # 579
  0.3280000000000000    0.5489000000000002    0.5021000000000000 # 580
  0.2166000000000000    0.3333000000000000    0.6403000000000000 # 581
  0.2192000000000000    0.3346000000000000    0.9133000000000000 # 582
  0.6644000000000000    0.7769000000000001    0.3934000000000001 # 583
  0.6657999999999999    0.7781000000000000    0.1204000000000000 # 584
