POSCAR generated by cell class
1.0
 12.8739939422452405    0.0000000000000000    0.0000000000000000
 -6.4369969711226176   11.1492058021513518    0.0000000000000000
  0.0000000000000000    0.0000000000000000    9.2389956526645793
 24 24 36
Direct
  0.3333333333333333    0.6666666666666666    0.6203000000000000 # 11
  0.2405000000000000    0.5407000000000000    0.4045000000000001 # 12
  0.6666666666666666    0.3333333333333333    0.1905000000000001 # 13
  0.6433000000000000    0.4321000000000000    0.9700000000000000 # 14
  0.0000000000000000    0.0000000000000000    0.7640000000000000 # 15
  0.1273000000000000    0.0466000000000000    0.9840000000000000 # 16
  0.4593000000000000    0.6998000000000000    0.4045000000000001 # 17
  0.5679000000000000    0.2112000000000000    0.9700000000000000 # 18
  0.9534000000000000    0.0807000000000000    0.9840000000000000 # 19
  0.3002000000000001    0.7595000000000000    0.4045000000000001 # 110
  0.7887999999999999    0.3567000000000000    0.9700000000000000 # 111
  0.9193000000000000    0.8727000000000000    0.9840000000000000 # 112
  0.3333333333333333    0.6666666666666666    0.1202999999999999 # 113
  0.3002000000000001    0.5407000000000000    0.9045000000000002 # 114
  0.6666666666666666    0.3333333333333333    0.6905000000000000 # 115
  0.7887999999999999    0.4321000000000000    0.4700000000000000 # 116
  0.0000000000000000    0.0000000000000000    0.2640000000000000 # 117
  0.9193000000000000    0.0466000000000000    0.4840000000000000 # 118
  0.2405000000000000    0.6998000000000000    0.9045000000000002 # 119
  0.6433000000000000    0.2112000000000000    0.4700000000000000 # 120
  0.1273000000000000    0.0807000000000000    0.4840000000000000 # 121
  0.4593000000000000    0.7595000000000000    0.9045000000000002 # 122
  0.5679000000000000    0.3567000000000000    0.4700000000000000 # 123
  0.9534000000000000    0.8727000000000000    0.4840000000000000 # 124
  0.3333333333333333    0.6666666666666666    0.4667000000000000 # 21
  0.2366000000000000    0.4451000000000000    0.2848000000000001 # 22
  0.6666666666666666    0.3333333333333333    0.0300000000000000 # 23
  0.5506000000000000    0.4373000000000001    0.8510000000000000 # 24
  0.0000000000000000    0.0000000000000000    0.9229999999999999 # 25
  0.2149000000000000    0.1534000000000000    0.1000000000000000 # 26
  0.5548999999999999    0.7915000000000000    0.2848000000000001 # 27
  0.5627000000000000    0.1133000000000000    0.8510000000000000 # 28
  0.8466000000000000    0.0615000000000000    0.1000000000000000 # 29
  0.2085000000000000    0.7634000000000000    0.2848000000000001 # 210
  0.8867000000000002    0.4494000000000001    0.8510000000000000 # 211
  0.9385000000000000    0.7851000000000000    0.1000000000000000 # 212
  0.3333333333333333    0.6666666666666666    0.9667000000000000 # 213
  0.2085000000000000    0.4451000000000000    0.7847999999999999 # 214
  0.6666666666666666    0.3333333333333333    0.5300000000000000 # 215
  0.8867000000000002    0.4373000000000001    0.3510000000000000 # 216
  0.0000000000000000    0.0000000000000000    0.4230000000000000 # 217
  0.9385000000000000    0.1534000000000000    0.6000000000000000 # 218
  0.2366000000000000    0.7915000000000000    0.7847999999999999 # 219
  0.5506000000000000    0.1133000000000000    0.3510000000000000 # 220
  0.2149000000000000    0.0615000000000000    0.6000000000000000 # 221
  0.5548999999999999    0.7634000000000000    0.7847999999999999 # 222
  0.5627000000000000    0.4494000000000001    0.3510000000000000 # 223
  0.8466000000000000    0.7851000000000000    0.6000000000000000 # 224
  0.1224000000000000    0.4318000000000001    0.2000000000000000 # 31
  0.1677000000000000    0.3346000000000000    0.3896000000000000 # 32
  0.6468000000000002    0.5476000000000000    0.7690000000000000 # 33
  0.5094000000000000    0.5074000000000000    0.9560000000000000 # 34
  0.2542000000000000    0.0738000000000000    0.1840000000000001 # 35
  0.3295000000000000    0.2160000000000000    0.0003000000000000 # 36
  0.5682000000000001    0.6906000000000000    0.2000000000000000 # 37
  0.6654000000000000    0.8331000000000000    0.3896000000000000 # 38
  0.4524000000000000    0.0992000000000000    0.7690000000000000 # 39
  0.4926000000000000    0.0020000000000000    0.9560000000000000 # 310
  0.9262000000000000    0.1804000000000000    0.1840000000000001 # 311
  0.7840000000000000    0.1135000000000000    0.0003000000000000 # 312
  0.3094000000000000    0.8776000000000002    0.2000000000000000 # 313
  0.1669000000000000    0.8323000000000002    0.3896000000000000 # 314
  0.9007999999999999    0.3532000000000000    0.7690000000000000 # 315
  0.9980000000000000    0.4906000000000000    0.9560000000000000 # 316
  0.8196000000000000    0.7458000000000000    0.1840000000000001 # 317
  0.8865000000000000    0.6705000000000000    0.0003000000000000 # 318
  0.3094000000000000    0.4318000000000001    0.7000000000000000 # 319
  0.1669000000000000    0.3346000000000000    0.8895999999999999 # 320
  0.9007999999999999    0.5476000000000000    0.2690000000000000 # 321
  0.9980000000000000    0.5074000000000000    0.4560000000000000 # 322
  0.8196000000000000    0.0738000000000000    0.6839999999999999 # 323
  0.8865000000000000    0.2160000000000000    0.5003000000000000 # 324
  0.1224000000000000    0.6906000000000000    0.7000000000000000 # 325
  0.1677000000000000    0.8331000000000000    0.8895999999999999 # 326
  0.6468000000000002    0.0992000000000000    0.2690000000000000 # 327
  0.5094000000000000    0.0020000000000000    0.4560000000000000 # 328
  0.2542000000000000    0.1804000000000000    0.6839999999999999 # 329
  0.3295000000000000    0.1135000000000000    0.5003000000000000 # 330
  0.5682000000000001    0.8776000000000002    0.7000000000000000 # 331
  0.6654000000000000    0.8323000000000002    0.8895999999999999 # 332
  0.4524000000000000    0.3532000000000000    0.2690000000000000 # 333
  0.4926000000000000    0.4906000000000000    0.4560000000000000 # 334
  0.9262000000000000    0.7458000000000000    0.6839999999999999 # 335
  0.7840000000000000    0.6705000000000000    0.5003000000000000 # 336
