$cell vectors
1.0
  9.3415956043869901    0.0000000000000000    0.0000000000000000
 -4.6707978021934924    8.0900591052801811    0.0000000000000000
  0.0000000000000000    0.0000000000000000    7.3054965624570940
 3 9 12 36
Direct
  0.0000000000000000    0.0000000000000000    0.0000000000000000 # Nd1
  0.6666666666666667    0.3333333333333331    0.3333333333333334 # Nd2
  0.3333333333333333    0.6666666666666669    0.6666666666666667 # Nd3
  0.5574000000000003    0.0000000000000000    0.0000000000000000 # Al1
  0.2240666666666665    0.3333333333333331    0.3333333333333334 # Al2
  0.8907333333333336    0.6666666666666669    0.6666666666666667 # Al3
 -0.0000000000000001    0.5573999999999999    0.0000000000000000 # Al4
  0.6666666666666671    0.8907333333333337    0.3333333333333334 # Al5
  0.3333333333333333    0.2240666666666668    0.6666666666666667 # Al6
  0.4426000000000003    0.4426000000000000    0.0000000000000000 # Al7
  0.1092666666666665    0.7759333333333331    0.3333333333333334 # Al8
  0.7759333333333337    0.1092666666666669    0.6666666666666667 # Al9
  0.0000000000000000    0.0000000000000000    0.4999999999999997 # B1
  0.4360000000000002    0.0000000000000000    0.4999999999999997 # B2
  0.6666666666666667    0.3333333333333331    0.8333333333333331 # B3
  0.1026666666666663    0.3333333333333331    0.8333333333333331 # B4
  0.3333333333333333    0.6666666666666669    0.1666666666666663 # B5
  0.7693333333333334    0.6666666666666669    0.1666666666666663 # B6
 -0.0000000000000001    0.4359999999999998    0.4999999999999997 # B7
  0.6666666666666670    0.7693333333333334    0.8333333333333331 # B8
  0.3333333333333333    0.1026666666666666    0.1666666666666663 # B9
  0.5639999999999999    0.5640000000000003    0.4999999999999997 # B10
  0.2306666666666666    0.8973333333333333    0.8333333333333331 # B11
  0.8973333333333335    0.2306666666666665    0.1666666666666663 # B12
  0.8510000000000002    0.0000000000000000    0.4999999999999997 # O1
  0.5889999999999997    0.0000000000000000    0.4999999999999997 # O2
  0.4469000000000000    0.1481000000000001    0.5252000000000000 # O3
  0.5176666666666669    0.3333333333333331    0.8333333333333331 # O4
  0.2556666666666665    0.3333333333333331    0.8333333333333331 # O5
  0.1135666666666667    0.4814333333333333    0.8585333333333334 # O6
  0.1843333333333328    0.6666666666666669    0.1666666666666663 # O7
  0.9223333333333330    0.6666666666666669    0.1666666666666663 # O8
  0.7802333333333338    0.8147666666666669    0.1918666666666666 # O9
 -0.0000000000000002    0.8509999999999996    0.4999999999999997 # O10
 -0.0000000000000002    0.5889999999999996    0.4999999999999997 # O11
  0.8519000000000000    0.2988000000000003    0.5252000000000000 # O12
  0.6666666666666666    0.1843333333333328    0.8333333333333331 # O13
  0.6666666666666670    0.9223333333333336    0.8333333333333331 # O14
  0.5185666666666667    0.6321333333333333    0.8585333333333334 # O15
  0.3333333333333331    0.5176666666666666    0.1666666666666663 # O16
  0.3333333333333331    0.2556666666666667    0.1666666666666663 # O17
  0.1852333333333329    0.9654666666666665    0.1918666666666666 # O18
  0.1490000000000001    0.1490000000000003    0.4999999999999997 # O19
  0.4110000000000005    0.4110000000000003    0.4999999999999997 # O20
  0.7011999999999998    0.5531000000000001    0.5252000000000000 # O21
  0.8156666666666668    0.4823333333333334    0.8333333333333331 # O22
  0.0776666666666666    0.7443333333333334    0.8333333333333331 # O23
  0.3678666666666666    0.8864333333333333    0.8585333333333334 # O24
  0.4823333333333333    0.8156666666666672    0.1666666666666663 # O25
  0.7443333333333334    0.0776666666666665    0.1666666666666663 # O26
  0.0345333333333333    0.2197666666666664    0.1918666666666666 # O27
  0.2987999999999997    0.8518999999999998    0.4748000000000002 # O28
  0.9654666666666669    0.1852333333333336    0.8081333333333334 # O29
  0.6321333333333330    0.5185666666666666    0.1414666666666668 # O30
  0.5531000000000001    0.7012000000000002    0.4748000000000002 # O31
  0.2197666666666669    0.0345333333333335    0.8081333333333334 # O32
  0.8864333333333331    0.3678666666666666    0.1414666666666668 # O33
  0.1481000000000000    0.4468999999999998    0.4748000000000002 # O34
  0.8147666666666664    0.7802333333333336    0.8081333333333334 # O35
  0.4814333333333332    0.1135666666666667    0.1414666666666668 # O36
