$cell vectors
1.0
 11.3799946452346461    0.0000000000000000    0.0000000000000000
  0.0000000000000000   11.3799946452346461    0.0000000000000000
  0.0000000000000000    0.0000000000000000    8.7499958827595030
 8 8 24 48
Direct
  0.0000000000000000    0.2039999999999999    0.0000000000000000 # K1
  0.5000000000000003    0.7040000000000001    0.5000000000000000 # K2
  0.7960000000000002    0.5000000000000003    0.2499999999999998 # K3
  0.2959999999999999    0.0000000000000000    0.7500000000000004 # K4
  0.0000000000000000    0.7960000000000002    0.0000000000000000 # K5
  0.5000000000000003    0.2959999999999999    0.5000000000000000 # K6
  0.2039999999999999    0.5000000000000003    0.2499999999999998 # K7
  0.7040000000000001    0.0000000000000000    0.7500000000000004 # K8
  0.5000000000000003    0.2660000000000001   -0.0090000000000000 # C1
  1.0000000000000000    0.7659999999999998    0.4909999999999999 # C2
  0.7339999999999999    1.0000000000000000    0.2409999999999997 # C3
  0.2340000000000002    0.5000000000000003    0.7409999999999998 # C4
  0.5000000000000003    0.7339999999999999   -0.0090000000000000 # C5
  0.0000000000000000    0.2340000000000002    0.4909999999999999 # C6
  0.2660000000000001    0.0000000000000000    0.2409999999999997 # C7
  0.7659999999999998    0.5000000000000003    0.7409999999999998 # C8
  0.5000000000000003    0.1420000000000002   -0.0300000000000002 # N1
  0.3900000000000001    0.2799999999999999    0.0539999999999999 # N2
  1.0000000000000000    0.6419999999999999    0.4699999999999999 # N3
  0.8899999999999999    0.7800000000000001    0.5539999999999999 # N4
  0.8579999999999999    1.0000000000000000    0.2200000000000001 # N5
  0.7200000000000001    0.8899999999999999    0.3040000000000003 # N6
  0.3580000000000001    0.5000000000000003    0.7200000000000002 # N7
  0.2199999999999998    0.3900000000000001    0.8040000000000003 # N8
  0.5000000000000003    0.8579999999999999   -0.0300000000000002 # N9
  0.6100000000000000    0.7200000000000001    0.0539999999999999 # N10
  0.0000000000000000    0.3580000000000001    0.4699999999999999 # N11
  0.1100000000000002    0.2199999999999998    0.5539999999999999 # N12
  0.1420000000000002    0.0000000000000000    0.2200000000000001 # N13
  0.2799999999999999    0.1100000000000002    0.3040000000000003 # N14
  0.6419999999999999    0.5000000000000003    0.7200000000000002 # N15
  0.7800000000000001    0.6100000000000000    0.8040000000000003 # N16
  0.6100000000000000    0.2799999999999999    0.0539999999999999 # N17
  1.1099999999999997    0.7800000000000001    0.5539999999999999 # N18
  0.3900000000000001    0.7200000000000001    0.0539999999999999 # N19
 -0.1100000000000002    0.2199999999999998    0.5539999999999999 # N20
  0.7200000000000001    1.1099999999999997    0.3040000000000003 # N21
  0.2199999999999998    0.6100000000000000    0.8040000000000003 # N22
  0.2799999999999999   -0.1100000000000002    0.3040000000000003 # N23
  0.7800000000000001    0.3900000000000001    0.8040000000000003 # N24
  0.5000000000000003    0.1090000000000001   -0.1599999999999998 # O1
  0.5000000000000003    0.1059999999999998    0.1029999999999997 # O2
  0.2899999999999999    0.2569999999999998    0.0160000000000000 # O3
  0.3979999999999999    0.3859999999999997    0.0899999999999999 # O4
  1.0000000000000000    0.6089999999999999    0.3400000000000002 # O5
  1.0000000000000000    0.6060000000000001    0.6029999999999999 # O6
  0.7900000000000001    0.7570000000000001    0.5160000000000001 # O7
  0.8980000000000001    0.8860000000000000    0.5899999999999999 # O8
  0.8910000000000000    1.0000000000000000    0.0899999999999999 # O9
  0.8940000000000000    1.0000000000000000    0.3530000000000001 # O10
  0.7429999999999998    0.7900000000000001    0.2659999999999997 # O11
  0.6140000000000002    0.8980000000000001    0.3400000000000002 # O12
  0.3910000000000001    0.5000000000000003    0.5899999999999999 # O13
  0.3940000000000000    0.5000000000000003    0.8530000000000001 # O14
  0.2430000000000000    0.2899999999999999    0.7660000000000003 # O15
  0.1140000000000000    0.3980000000000004    0.8400000000000003 # O16
  0.5000000000000003    0.8910000000000000   -0.1599999999999998 # O17
  0.5000000000000003    0.8940000000000000    0.1029999999999997 # O18
  0.7100000000000002    0.7429999999999998    0.0160000000000000 # O19
  0.6019999999999996    0.6139999999999998    0.0899999999999999 # O20
  0.0000000000000000    0.3910000000000001    0.3400000000000002 # O21
  0.0000000000000000    0.3940000000000000    0.6029999999999999 # O22
  0.2100000000000000    0.2430000000000000    0.5160000000000001 # O23
  0.1019999999999999    0.1140000000000000    0.5899999999999999 # O24
  0.1090000000000001    0.0000000000000000    0.0899999999999999 # O25
  0.1059999999999998    0.0000000000000000    0.3530000000000001 # O26
  0.2569999999999998    0.2100000000000000    0.2659999999999997 # O27
  0.3859999999999997    0.1019999999999999    0.3400000000000002 # O28
  0.6089999999999999    0.5000000000000003    0.5899999999999999 # O29
  0.6060000000000001    0.5000000000000003    0.8530000000000001 # O30
  0.7570000000000001    0.7100000000000002    0.7660000000000003 # O31
  0.8860000000000000    0.6020000000000002    0.8400000000000003 # O32
  0.7100000000000002    0.2569999999999998    0.0160000000000000 # O33
  0.6019999999999996    0.3859999999999997    0.0899999999999999 # O34
  1.2100000000000000    0.7570000000000001    0.5160000000000001 # O35
  1.1019999999999999    0.8860000000000000    0.5899999999999999 # O36
  0.2900000000000003    0.7429999999999998    0.0160000000000000 # O37
  0.3979999999999999    0.6139999999999998    0.0899999999999999 # O38
 -0.2100000000000000    0.2430000000000000    0.5160000000000001 # O39
 -0.1019999999999999    0.1140000000000000    0.5899999999999999 # O40
  0.7429999999999998    1.2100000000000000    0.2659999999999997 # O41
  0.6140000000000002    1.1019999999999999    0.3400000000000002 # O42
  0.2430000000000000    0.7100000000000002    0.7660000000000003 # O43
  0.1140000000000000    0.6020000000000002    0.8400000000000003 # O44
  0.2569999999999998   -0.2100000000000000    0.2659999999999997 # O45
  0.3859999999999997   -0.1019999999999999    0.3400000000000002 # O46
  0.7570000000000001    0.2900000000000003    0.7660000000000003 # O47
  0.8860000000000000    0.3980000000000004    0.8400000000000003 # O48
