$cell vectors
1.0
  3.8071982085533707    0.0000000000000000    0.0000000000000000
  0.0000000000000000    3.8071982085533707    0.0000000000000000
  0.0000000000000000    0.0000000000000000    4.6981977893006528
 1 1 3
Direct
  0.0000000000000000    0.0000000000000000    0.0000000000000000 # Pb1
  0.5000000000000000    0.5000000000000000    0.5674000000000002 # V1
  0.5000000000000000    0.5000000000000000    0.2101999999999996 # O1
  0.5000000000000000    0.0000000000000000    0.6915000000000003 # O2
  0.0000000000000000    0.5000000000000000    0.6915000000000003 # O3
