$cell vectors
1.0
  4.6685978032286863    0.0000000000000000    0.0000000000000000
  0.0000000000000000    4.6685978032286863    0.0000000000000000
  0.0000000000000000    0.0000000000000000    5.2149975461246667
 6 2 4
Direct
  0.0000000000000000    0.0000000000000000    0.4999999999999994 # Li1
  0.0000000000000000    0.5000000000000000    0.2499999999999997 # Li2
  0.5000000000000000    0.5000000000000000    0.0000000000000000 # Li3
  0.0000000000000000    0.5000000000000000    0.7499999999999991 # Li4
  0.5000000000000000    0.0000000000000000    0.2499999999999997 # Li5
  0.5000000000000000    0.0000000000000000    0.7499999999999991 # Li6
  0.0000000000000000    0.0000000000000000    0.0000000000000000 # B1
  0.5000000000000000    0.5000000000000000    0.4999999999999994 # B2
  0.2962000000000005    0.2962000000000005    0.0000000000000000 # N1
  0.2037999999999995   -0.2037999999999995    0.4999999999999994 # N2
  0.7038000000000006    0.7038000000000006    0.0000000000000000 # N3
 -0.2037999999999995    0.2037999999999995    0.4999999999999994 # N4
