$cell vectors
1.0
  5.8939972266267997    0.0000000000000000    0.0000000000000000
  0.0000000000000000    5.8939972266267997    0.0000000000000000
  0.0000000000000000    0.0000000000000000    8.3479960719172936
 4 4 12
Direct
  0.5000000000000003    0.0000000000000000    0.2460000000000003 # K1
  0.5000000000000003    0.0000000000000000    0.7540000000000004 # K2
  0.0000000000000000    0.5000000000000003    0.2460000000000003 # K3
  0.0000000000000000    0.5000000000000003    0.7540000000000004 # K4
  0.0000000000000000    0.0000000000000000    0.0000000000000000 # Mn1
  0.0000000000000000    0.0000000000000000    0.5000000000000004 # Mn2
  0.5000000000000003    0.5000000000000003    0.0000000000000000 # Mn3
  0.5000000000000003    0.5000000000000003    0.5000000000000004 # Mn4
  0.0000000000000000    0.0000000000000000    0.2499999999999998 # F1
  0.2730000000000001    0.7730000000000006    0.5000000000000004 # F2
  0.2499999999999997    0.7500000000000000    0.0000000000000000 # F3
  0.0000000000000000    0.0000000000000000    0.7500000000000001 # F4
  0.7270000000000006    0.2270000000000003    0.5000000000000004 # F5
  0.7500000000000000    0.2499999999999997    0.0000000000000000 # F6
  0.2270000000000003    0.2730000000000001    0.5000000000000004 # F7
  0.2499999999999997    0.2499999999999997    0.0000000000000000 # F8
  0.7730000000000006    0.7270000000000006    0.5000000000000004 # F9
  0.7500000000000000    0.7500000000000000    0.0000000000000000 # F10
  0.5000000000000003    0.5000000000000003    0.7500000000000001 # F11
  0.5000000000000003    0.5000000000000003    0.2499999999999998 # F12
