$cell vectors
1.0
  4.3982979304161285    0.0000000000000000    0.0000000000000000
  0.0000000000000000    4.3982979304161285    0.0000000000000000
  0.0000000000000000    0.0000000000000000    2.8729986481334930
 2 4
Direct
  0.0000000000000000    0.0000000000000000    0.0000000000000000 # Mn1
  0.5000000000000000    0.5000000000000000    0.4999999999999992 # Mn2
  0.3050999999999995    0.3050999999999995    0.0000000000000000 # O1
  0.6949000000000006    0.6949000000000006    0.0000000000000000 # O2
  0.1949000000000005    0.8050999999999996    0.4999999999999992 # O3
  0.8050999999999996    0.1949000000000005    0.4999999999999992 # O4
