$cell vectors
1.0
  6.5139969348909057    0.0000000000000000    0.0000000000000000
  0.0000000000000000    6.5139969348909057    0.0000000000000000
  0.0000000000000000    0.0000000000000000    6.8089967960810807
 2 8
Direct
  0.0000000000000000    0.0000000000000000    0.2245000000000001 # Ta1
  0.0000000000000000    0.0000000000000000    0.7244999999999998 # Ta2
  0.1440000000000002    0.3280000000000000    0.0000000000000000 # Te1
  0.6719999999999999    0.1440000000000002    0.0000000000000000 # Te2
  0.8559999999999998    0.6719999999999999    0.0000000000000000 # Te3
  0.3280000000000000    0.8559999999999998    0.0000000000000000 # Te4
  0.8559999999999998    0.3280000000000000    0.4999999999999996 # Te5
  0.1440000000000002    0.6719999999999999    0.4999999999999996 # Te6
  0.6719999999999999    0.8559999999999998    0.4999999999999996 # Te7
  0.3280000000000000    0.1440000000000002    0.4999999999999996 # Te8
