$cell vectors
1.0
  7.9799962450766673    0.0000000000000000    0.0000000000000000
  0.0000000000000000    7.9799962450766673    0.0000000000000000
  0.0000000000000000    0.0000000000000000    9.7799953981014784
 16 24 32
Direct
  0.2499999999999999    0.2499999999999999    0.5180000000000000 # N1
  0.2499999999999999    0.2499999999999999    0.0179999999999998 # N2
  0.0000000000000000    0.0000000000000000    0.2500000000000002 # N3
  0.4999999999999998    0.0000000000000000    0.2500000000000002 # N4
  0.5000000000000004    0.5000000000000004    0.2500000000000002 # N5
  0.0000000000000000    0.5000000000000004    0.2500000000000002 # N6
  0.7500000000000003    0.2499999999999999    0.0179999999999998 # N7
  0.7500000000000003    0.2499999999999999    0.5180000000000000 # N8
  0.0000000000000000    0.0000000000000000    0.7500000000000000 # N9
  0.0000000000000000    0.5000000000000004    0.7500000000000000 # N10
  0.5000000000000004    0.5000000000000004    0.7500000000000000 # N11
  0.5000000000000004    0.0000000000000000    0.7500000000000000 # N12
  0.7500000000000003    0.7500000000000003    0.5180000000000000 # N13
  0.7500000000000003    0.7500000000000003    0.0179999999999998 # N14
  0.2499999999999999    0.7500000000000003    0.0179999999999998 # N15
  0.2499999999999999    0.7500000000000003    0.5180000000000000 # N16
  0.1200000000000002    0.2700000000000001    0.4559999999999999 # O1
  0.3800000000000002    0.2300000000000003    0.4559999999999999 # O2
  0.2499999999999999    0.2499999999999999    0.6420000000000000 # O3
  0.1200000000000002    0.2300000000000003   -0.0439999999999999 # O4
  0.3800000000000002    0.2700000000000001   -0.0439999999999999 # O5
  0.2499999999999999    0.2499999999999999    0.1420000000000002 # O6
  0.7300000000000000    0.1200000000000002   -0.0439999999999999 # O7
  0.7699999999999999    0.3800000000000002   -0.0439999999999999 # O8
  0.7500000000000003    0.2499999999999999    0.1419999999999997 # O9
  0.7699999999999999    0.1200000000000002    0.4559999999999999 # O10
  0.7300000000000000    0.3800000000000002    0.4559999999999999 # O11
  0.7500000000000003    0.2499999999999999    0.6420000000000000 # O12
  0.8800000000000000    0.7300000000000000    0.4559999999999999 # O13
  0.6200000000000000    0.7699999999999999    0.4559999999999999 # O14
  0.7500000000000003    0.7500000000000003    0.6420000000000000 # O15
  0.8800000000000000    0.7699999999999999   -0.0439999999999999 # O16
  0.6200000000000000    0.7300000000000000   -0.0439999999999999 # O17
  0.7500000000000003    0.7500000000000003    0.1420000000000002 # O18
  0.2700000000000001    0.8800000000000000   -0.0439999999999999 # O19
  0.2300000000000003    0.6200000000000000   -0.0439999999999999 # O20
  0.2499999999999999    0.7500000000000003    0.1419999999999997 # O21
  0.2300000000000003    0.8800000000000000    0.4559999999999999 # O22
  0.2700000000000001    0.6200000000000000    0.4559999999999999 # O23
  0.2499999999999999    0.7500000000000003    0.6420000000000000 # O24
  0.0760000000000003    0.0760000000000003    0.1899999999999997 # H1
  0.0760000000000003   -0.0759999999999997    0.3100000000000001 # H2
  0.5760000000000001    0.0760000000000003    0.1899999999999997 # H3
  0.4240000000000001    0.0760000000000003    0.3100000000000001 # H4
  0.4240000000000001    0.4240000000000001    0.3100000000000001 # H5
  0.4240000000000001    0.5760000000000001    0.1899999999999997 # H6
 -0.0759999999999997    0.4240000000000001    0.3100000000000001 # H7
 -0.0759999999999997    0.5760000000000001    0.1899999999999997 # H8
 -0.0759999999999997    0.0760000000000003    0.6900000000000002 # H9
  0.0760000000000003    0.0760000000000003    0.8100000000000003 # H10
 -0.0759999999999997    0.5760000000000001    0.6900000000000002 # H11
 -0.0759999999999997    0.4240000000000001    0.8100000000000003 # H12
  0.5760000000000001    0.4240000000000001    0.8100000000000003 # H13
  0.4240000000000001    0.4240000000000001    0.6900000000000002 # H14
  0.5760000000000001   -0.0759999999999997    0.8100000000000003 # H15
  0.4240000000000001   -0.0759999999999997    0.6900000000000002 # H16
 -0.0760000000000003   -0.0760000000000003    0.1899999999999997 # H17
 -0.0760000000000003    0.0760000000000003    0.3100000000000001 # H18
  0.4240000000000001   -0.0760000000000003    0.1899999999999997 # H19
  0.5760000000000001   -0.0759999999999997    0.3100000000000001 # H20
  0.5760000000000001    0.5760000000000001    0.3100000000000001 # H21
  0.5760000000000001    0.4240000000000001    0.1899999999999997 # H22
  0.0760000000000003    0.5760000000000001    0.3100000000000001 # H23
  0.0760000000000003    0.4240000000000001    0.1899999999999997 # H24
  0.0760000000000003   -0.0759999999999997    0.6900000000000002 # H25
 -0.0759999999999997   -0.0759999999999997    0.8100000000000003 # H26
  0.0760000000000003    0.4240000000000001    0.6900000000000002 # H27
  0.0760000000000003    0.5760000000000001    0.8100000000000003 # H28
  0.4240000000000001    0.5760000000000001    0.8100000000000003 # H29
  0.5760000000000001    0.5760000000000001    0.6900000000000002 # H30
  0.4240000000000001    0.0760000000000003    0.8100000000000003 # H31
  0.5760000000000001    0.0760000000000003    0.6900000000000002 # H32
