$cell vectors
1.0
 20.3379904301214545    0.0000000000000000    0.0000000000000000
  0.0000000000000000   20.3379904301214545    0.0000000000000000
  0.0000000000000000    0.0000000000000000   14.6679930980933033
 72 48 16
Direct
  0.1385000000000000    0.0816000000000000    0.0000000000000000 # Sr1
  0.1385000000000000    0.0804000000000001    0.5043000000000000 # Sr2
  0.0795000000000000    0.8640000000000003    0.0034999999999998 # Sr3
  0.0791000000000001    0.8660000000000001    0.5031999999999998 # Sr4
  0.1682000000000000    0.9130000000000005    0.2498000000000001 # Sr5
  0.1693000000000003    0.9110000000000005    0.7500000000000001 # Sr6
  0.9150000000000005    0.8370000000000000    0.2498000000000001 # Sr7
  0.9120000000000005    0.8360000000000003    0.7503000000000000 # Sr8
  0.2371000000000000    0.7521000000000003    0.3676000000000000 # Sr9
  0.6385000000000004    0.5816000000000002    0.4999999999999998 # Sr10
  0.6385000000000004    0.5804000000000002    0.0042999999999998 # Sr11
  0.5795000000000001    0.3640000000000002    0.5035000000000001 # Sr12
  0.5791000000000002    0.3660000000000002    0.0031999999999999 # Sr13
  0.6682000000000001    0.4130000000000003    0.7497999999999999 # Sr14
  0.6693000000000005    0.4110000000000003    0.2499999999999999 # Sr15
  0.4150000000000001    0.3370000000000002    0.7497999999999999 # Sr16
  0.4120000000000003    0.3360000000000002    0.2502999999999998 # Sr17
  0.7371000000000004    0.2521000000000002    0.8675999999999999 # Sr18
  0.9184000000000003    0.6385000000000004    0.2499999999999999 # Sr19
  0.9196000000000001    0.6385000000000004    0.7542999999999999 # Sr20
  0.1360000000000001    0.5795000000000001    0.2535000000000001 # Sr21
  0.1340000000000003    0.5791000000000002    0.7531999999999999 # Sr22
  0.0870000000000001    0.6682000000000001    0.4998000000000000 # Sr23
  0.0890000000000002    0.6693000000000005    0.0000000000000000 # Sr24
  0.1630000000000001    0.4150000000000001    0.4998000000000000 # Sr25
  0.1640000000000001    0.4120000000000003    0.0002999999999999 # Sr26
  0.2479000000000001    0.7371000000000004    0.6175999999999999 # Sr27
  0.4184000000000000    0.1385000000000002    0.7500000000000001 # Sr28
  0.4196000000000000    0.1385000000000000    0.2543000000000001 # Sr29
  0.6360000000000001    0.0795000000000002    0.7534999999999998 # Sr30
  0.6340000000000001    0.0791000000000001    0.2531999999999998 # Sr31
  0.5870000000000002    0.1682000000000000    0.9997999999999998 # Sr32
  0.5890000000000003    0.1693000000000000    0.4999999999999998 # Sr33
  0.6630000000000005    0.9150000000000005    0.9997999999999998 # Sr34
  0.6640000000000003    0.9120000000000005    0.5003000000000001 # Sr35
  0.7479000000000002    0.2371000000000000    0.1176000000000001 # Sr36
  0.8615000000000000    0.9184000000000003    0.0000000000000000 # Sr37
  0.8615000000000000    0.9196000000000001    0.5043000000000000 # Sr38
  0.9205000000000003    0.1360000000000001    0.0034999999999998 # Sr39
  0.9209000000000005    0.1340000000000000    0.5031999999999998 # Sr40
  0.8318000000000005    0.0870000000000001    0.2498000000000001 # Sr41
  0.8307000000000001    0.0890000000000002    0.7500000000000001 # Sr42
  0.0850000000000000    0.1630000000000001    0.2498000000000001 # Sr43
  0.0880000000000001    0.1640000000000001    0.7503000000000000 # Sr44
  0.7629000000000002    0.2479000000000001    0.3676000000000000 # Sr45
  0.3615000000000002    0.4184000000000000    0.4999999999999998 # Sr46
  0.3615000000000002    0.4196000000000000    0.0042999999999998 # Sr47
  0.4205000000000002    0.6360000000000001    0.5035000000000001 # Sr48
  0.4209000000000002    0.6340000000000001    0.0031999999999999 # Sr49
  0.3318000000000001    0.5870000000000002    0.7497999999999999 # Sr50
  0.3307000000000001    0.5890000000000003    0.2499999999999999 # Sr51
  0.5850000000000001    0.6630000000000003    0.7497999999999999 # Sr52
  0.5880000000000002    0.6640000000000003    0.2502999999999998 # Sr53
  0.2629000000000004    0.7479000000000005    0.8675999999999999 # Sr54
  0.0816000000000000    0.3615000000000002    0.2499999999999999 # Sr55
  0.0804000000000001    0.3615000000000002    0.7542999999999999 # Sr56
  0.8640000000000003    0.4205000000000002    0.2535000000000001 # Sr57
  0.8660000000000001    0.4209000000000002    0.7531999999999999 # Sr58
  0.9130000000000005    0.3318000000000001    0.4998000000000000 # Sr59
  0.9110000000000005    0.3307000000000001    0.0000000000000000 # Sr60
  0.8370000000000000    0.5850000000000001    0.4998000000000000 # Sr61
  0.8360000000000003    0.5880000000000002    0.0002999999999999 # Sr62
  0.7521000000000003    0.2629000000000001    0.6175999999999999 # Sr63
  0.5816000000000003    0.8615000000000000    0.7500000000000001 # Sr64
  0.5804000000000006    0.8615000000000000    0.2543000000000001 # Sr65
  0.3640000000000002    0.9205000000000003    0.7534999999999998 # Sr66
  0.3660000000000002    0.9209000000000005    0.2531999999999998 # Sr67
  0.4130000000000003    0.8318000000000005    0.9997999999999998 # Sr68
  0.4110000000000003    0.8307000000000001    0.4999999999999998 # Sr69
  0.3370000000000002    0.0850000000000002    0.9997999999999998 # Sr70
  0.3360000000000002    0.0880000000000001    0.5003000000000001 # Sr71
  0.2521000000000002    0.7629000000000002    0.1176000000000001 # Sr72
  0.0000000000000000    0.0000000000000000    0.1472000000000001 # Fe1
  0.0000000000000000    0.0000000000000000    0.6430999999999999 # Fe2
  0.0000000000000000    0.0000000000000000    0.3815000000000000 # Fe3
  0.0000000000000000    0.0000000000000000    0.8767999999999999 # Fe4
  0.2618000000000001    0.9140000000000005    0.9989999999999999 # Fe5
  0.2616000000000002    0.9080000000000004    0.4959999999999999 # Fe6
  0.9310000000000003    0.7440000000000002    0.9949999999999999 # Fe7
  0.9270000000000003    0.7460000000000000    0.4879000000000000 # Fe8
  0.5000000000000000    0.5000000000000000    0.6472000000000000 # Fe9
  0.5000000000000000    0.5000000000000000    0.1431000000000001 # Fe10
  0.5000000000000000    0.5000000000000000    0.8814999999999998 # Fe11
  0.5000000000000000    0.5000000000000000    0.3767999999999999 # Fe12
  0.7618000000000005    0.4140000000000001    0.4990000000000001 # Fe13
  0.7616000000000003    0.4080000000000003    0.9960000000000000 # Fe14
  0.4310000000000002    0.2440000000000002    0.4949999999999997 # Fe15
  0.4270000000000003    0.2460000000000002    0.9878999999999998 # Fe16
  0.0000000000000000    0.5000000000000000    0.3972000000000000 # Fe17
  0.0000000000000000    0.5000000000000000    0.8930999999999999 # Fe18
  0.0000000000000000    0.5000000000000000    0.6315000000000000 # Fe19
  0.0000000000000000    0.5000000000000000    0.1267999999999999 # Fe20
  0.0860000000000000    0.7618000000000005    0.2490000000000001 # Fe21
  0.0920000000000000    0.7616000000000003    0.7459999999999999 # Fe22
  0.2560000000000002    0.4310000000000002    0.2449999999999999 # Fe23
  0.2540000000000002    0.4270000000000003    0.7378999999999999 # Fe24
  0.5000000000000000    0.0000000000000000    0.8971999999999999 # Fe25
  0.5000000000000000    0.0000000000000000    0.3931000000000001 # Fe26
  0.5000000000000000    0.0000000000000000    0.1315000000000001 # Fe27
  0.5000000000000000    0.0000000000000000    0.6268000000000000 # Fe28
  0.5860000000000001    0.2618000000000001    0.7489999999999999 # Fe29
  0.5920000000000001    0.2616000000000002    0.2460000000000000 # Fe30
  0.7560000000000003    0.9310000000000003    0.7449999999999999 # Fe31
  0.7540000000000006    0.9270000000000003    0.2379000000000001 # Fe32
  0.7382000000000004    0.0860000000000000    0.9989999999999999 # Fe33
  0.7384000000000003    0.0920000000000000    0.4959999999999999 # Fe34
  0.0690000000000000    0.2560000000000002    0.9949999999999999 # Fe35
  0.0730000000000002    0.2540000000000002    0.4879000000000000 # Fe36
  0.2382000000000003    0.5860000000000001    0.4990000000000001 # Fe37
  0.2384000000000002    0.5920000000000001    0.9960000000000000 # Fe38
  0.5690000000000003    0.7560000000000003    0.4949999999999997 # Fe39
  0.5730000000000004    0.7540000000000006    0.9878999999999998 # Fe40
  0.9140000000000005    0.2382000000000001    0.2490000000000001 # Fe41
  0.9080000000000004    0.2384000000000002    0.7459999999999999 # Fe42
  0.7440000000000002    0.5690000000000001    0.2449999999999999 # Fe43
  0.7460000000000000    0.5730000000000004    0.7378999999999999 # Fe44
  0.4140000000000003    0.7382000000000004    0.7489999999999999 # Fe45
  0.4080000000000003    0.7384000000000003    0.2460000000000000 # Fe46
  0.2440000000000002    0.0690000000000000    0.7449999999999999 # Fe47
  0.2460000000000000    0.0730000000000002    0.2379000000000001 # Fe48
  0.2660000000000002    0.8600000000000004    0.2379999999999999 # F1
  0.2720000000000002    0.8410000000000004    0.7259999999999999 # F2
  0.7660000000000002    0.3600000000000000    0.7380000000000001 # F3
  0.7720000000000004    0.3410000000000002    0.2260000000000001 # F4
  0.1400000000000000    0.7660000000000002    0.4880000000000000 # F5
  0.1590000000000002    0.7720000000000004    0.9759999999999998 # F6
  0.6400000000000002    0.2660000000000002    0.9880000000000000 # F7
  0.6590000000000004    0.2720000000000002    0.4760000000000000 # F8
  0.7340000000000003    0.1400000000000000    0.2379999999999999 # F9
  0.7280000000000002    0.1590000000000002    0.7259999999999999 # F10
  0.2340000000000002    0.6400000000000002    0.7380000000000001 # F11
  0.2280000000000001    0.6590000000000004    0.2260000000000001 # F12
  0.8600000000000004    0.2340000000000002    0.4880000000000000 # F13
  0.8410000000000004    0.2280000000000001    0.9759999999999998 # F14
  0.3600000000000000    0.7340000000000003    0.9880000000000000 # F15
  0.3410000000000002    0.7280000000000002    0.4760000000000000 # F16
