B2H6
1.0
     15.0000000       0.0000000       0.0000000
     -0.0000000      15.0000000       0.0000000
      0.0000000       0.0000000      15.0000000
  B     H   
  2     6   
Direct
      0.4464384       0.4871243       0.5102015
      0.5589544       0.5145673       0.4933316
      0.4160072       0.4909246       0.5838141
      0.4021393       0.4650516       0.4476794
      0.6034656       0.5366634       0.5556978
      0.5891566       0.5106413       0.4196429
      0.4858885       0.5636142       0.4917491
      0.5195569       0.4381620       0.5121705
