W
   1.00000000000000     
     5.0218978888349071    0.0000000000453806    0.0000000000000000
    -2.5109484443388332    4.3490909837015259    0.0000000000000000
     0.0000000000000000    0.0000000000000000    5.5119294085655142
   W 
     1
Direct
 -0.0000000000000003  0.4763431475490085  0.6666669999999968
