Ga1 As1
1.0
0.000000 2.875091 2.875091
2.875091 0.000000 2.875091
2.875091 2.875091 0.000000
Ga As
1 1
direct
0.000000 0.000000 0.000000 Ga
0.250000 0.250000 0.250000 As
