Ge4Te4
1.0
      5.7830000       0.0000000       0.0000000
      0.0000000       5.7830000       0.0000000
      0.0000000       0.0000000       5.7830000
  Ge    Te  
  4     4   
Direct
      0.5000000       0.0000000       0.5000000
      0.0000000       0.5000000       0.5000000
      0.5000000       0.5000000       0.0000000
      0.0000000       0.0000000       0.0000000
      0.5000000       0.5000000       0.5000000
      0.5000000       0.0000000       0.0000000
      0.0000000       0.5000000       0.0000000
      0.0000000       0.0000000       0.5000000
