Si3 O6                                  
   1.00000000000000     
     5.0218978888349071    0.0000000000453806    0.0000000000000000
    -2.5109484443388332    4.3490909837015259    0.0000000000000000
     0.0000000000000000    0.0000000000000000    5.5119294085655142
   Si   O 
     3     6
Direct
 -0.0000000000000003  0.4763431475490085  0.6666669999999968
  0.5236568524509936  0.5236568524509926  0.0000000000000000
  0.4763431475490066 -0.0000000000000012  0.3333330000000032
  0.1589037798059321  0.7440031622164922  0.4613477252144715
  0.2559968377835071  0.4149006175894398  0.7946807252144676
  0.5850993824105679  0.8410962201940679  0.1280147252144683
  0.7440031622164928  0.1589037798059326  0.5386522747855285
  0.4149006175894392  0.2559968377835000  0.2053192747855324
  0.8410962201940680  0.5850993824105675  0.8719852747855317
 
  0.00000000E+00  0.00000000E+00  0.00000000E+00
  0.00000000E+00  0.00000000E+00  0.00000000E+00
  0.00000000E+00  0.00000000E+00  0.00000000E+00
  0.00000000E+00  0.00000000E+00  0.00000000E+00
  0.00000000E+00  0.00000000E+00  0.00000000E+00
  0.00000000E+00  0.00000000E+00  0.00000000E+00
  0.00000000E+00  0.00000000E+00  0.00000000E+00
  0.00000000E+00  0.00000000E+00  0.00000000E+00
  0.00000000E+00  0.00000000E+00  0.00000000E+00
