$molecule
 -1 1
 S     -1.1408747223      0.8527462925     -0.0736147003
 S      1.1408277386     -0.8526869084     -0.0736159955
 C     -2.5517439324     -0.3740073729      0.0238747570
 N     -0.0000306638      0.0000138462     -0.7905587609
$end

$rem
   job_type = opt
   basis = def2-svpd
   max_scf_cycles = 100
   gen_scfman = true
   xc_grid = 3
   thresh = 14
   s2thresh = 16
   scf_algorithm = diis
   resp_charges = true
   symmetry = false
   sym_ignore = true
   method = wb97mv
   geom_opt_max_cycles = 200
$end
