group 5
   1.00000000000000
     12.8065400000000000     0.0000000000000000     0.0000000000000000
      0.0000000000000000    12.8065400000000000     0.0000000000000000
      0.0000000000000000     0.0000000000000000    12.8065400000000000
  16   8  32  16  16   8  16  32  32  32
Direct
  0.3750000000000000  0.0000000000000000  0.2500000000000000
  0.1250000000000000  0.0000000000000000  0.7500000000000000
  0.2500000000000000  0.3750000000000000  0.0000000000000000
  0.7500000000000000  0.1250000000000000  0.0000000000000000
  0.7500000000000000  0.6250000000000000  0.0000000000000000
  0.7500000000000000  0.3750000000000000  0.5000000000000000
  0.1250000000000000  0.5000000000000000  0.2500000000000000
  0.8750000000000000  0.0000000000000000  0.2500000000000000
  0.8750000000000000  0.5000000000000000  0.7500000000000000
  0.6250000000000000  0.5000000000000000  0.2500000000000000
  0.7500000000000000  0.8750000000000000  0.5000000000000000
  0.2500000000000000  0.6250000000000000  0.5000000000000000
  0.2500000000000000  0.1250000000000000  0.5000000000000000
  0.2500000000000000  0.8750000000000000  0.0000000000000000
  0.6250000000000000  0.0000000000000000  0.7500000000000000
  0.3750000000000000  0.5000000000000000  0.7500000000000000
  0.0000000000000000  0.2500000000000000  0.3750000000000000
  0.0000000000000000  0.7500000000000000  0.1250000000000000
  0.0000000000000000  0.2500000000000000  0.8750000000000000
  0.5000000000000000  0.2500000000000000  0.1250000000000000
  0.5000000000000000  0.7500000000000000  0.8750000000000000
  0.5000000000000000  0.2500000000000000  0.6250000000000000
  0.5000000000000000  0.7500000000000000  0.3750000000000000
  0.0000000000000000  0.7500000000000000  0.6250000000000000
  0.1250000000000000  0.6875000000000000  0.5625000000000000
  0.3750000000000000  0.3125000000000000  0.0625000000000000
  0.8750000000000000  0.1875000000000000  0.9375000000000000
  0.6250000000000000  0.8125000000000000  0.4375000000000000
  0.5625000000000000  0.1250000000000000  0.6875000000000000
  0.0625000000000000  0.3750000000000000  0.3125000000000000
  0.9375000000000000  0.8750000000000000  0.1875000000000000
  0.4375000000000000  0.6250000000000000  0.8125000000000000
  0.8750000000000000  0.3125000000000000  0.4375000000000000
  0.6250000000000000  0.6875000000000000  0.9375000000000000
  0.1250000000000000  0.8125000000000000  0.0625000000000000
  0.3750000000000000  0.1875000000000000  0.5625000000000000
  0.4375000000000000  0.8750000000000000  0.3125000000000000
  0.9375000000000000  0.6250000000000000  0.6875000000000000
  0.0625000000000000  0.1250000000000000  0.8125000000000000
  0.5625000000000000  0.3750000000000000  0.1875000000000000
  0.6250000000000000  0.1875000000000000  0.0625000000000000
  0.8750000000000000  0.8125000000000000  0.5625000000000000
  0.3750000000000000  0.6875000000000000  0.4375000000000000
  0.1250000000000000  0.3125000000000000  0.9375000000000000
  0.0625000000000000  0.6250000000000000  0.1875000000000000
  0.5625000000000000  0.8750000000000000  0.8125000000000000
  0.4375000000000000  0.3750000000000000  0.6875000000000000
  0.9375000000000000  0.1250000000000000  0.3125000000000000
  0.3750000000000000  0.8125000000000000  0.9375000000000000
  0.1250000000000000  0.1875000000000000  0.4375000000000000
  0.6250000000000000  0.3125000000000000  0.5625000000000000
  0.8750000000000000  0.6875000000000000  0.0625000000000000
  0.9375000000000000  0.3750000000000000  0.8125000000000000
  0.4375000000000000  0.1250000000000000  0.1875000000000000
  0.5625000000000000  0.6250000000000000  0.3125000000000000
  0.0625000000000000  0.8750000000000000  0.6875000000000000
  0.6875000000000000  0.5625000000000000  0.1250000000000000
  0.3125000000000000  0.0625000000000000  0.3750000000000000
  0.1875000000000000  0.9375000000000000  0.8750000000000000
  0.8125000000000000  0.4375000000000000  0.6250000000000000
  0.3125000000000000  0.4375000000000000  0.8750000000000000
  0.6875000000000000  0.9375000000000000  0.6250000000000000
  0.8125000000000000  0.0625000000000000  0.1250000000000000
  0.1875000000000000  0.5625000000000000  0.3750000000000000
  0.1875000000000000  0.0625000000000000  0.6250000000000000
  0.8125000000000000  0.5625000000000000  0.8750000000000000
  0.6875000000000000  0.4375000000000000  0.3750000000000000
  0.3125000000000000  0.9375000000000000  0.1250000000000000
  0.8125000000000000  0.9375000000000000  0.3750000000000000
  0.1875000000000000  0.4375000000000000  0.1250000000000000
  0.3125000000000000  0.5625000000000000  0.6250000000000000
  0.6875000000000000  0.0625000000000000  0.8750000000000000
  0.1250000000000000  0.0000000000000000  0.2500000000000000
  0.3750000000000000  0.0000000000000000  0.7500000000000000
  0.2500000000000000  0.1250000000000000  0.0000000000000000
  0.7500000000000000  0.3750000000000000  0.0000000000000000
  0.8750000000000000  0.0000000000000000  0.7500000000000000
  0.6250000000000000  0.0000000000000000  0.2500000000000000
  0.7500000000000000  0.8750000000000000  0.0000000000000000
  0.2500000000000000  0.6250000000000000  0.0000000000000000
  0.6250000000000000  0.5000000000000000  0.7500000000000000
  0.8750000000000000  0.5000000000000000  0.2500000000000000
  0.7500000000000000  0.6250000000000000  0.5000000000000000
  0.2500000000000000  0.8750000000000000  0.5000000000000000
  0.3750000000000000  0.5000000000000000  0.2500000000000000
  0.1250000000000000  0.5000000000000000  0.7500000000000000
  0.2500000000000000  0.3750000000000000  0.5000000000000000
  0.7500000000000000  0.1250000000000000  0.5000000000000000
  0.0000000000000000  0.2500000000000000  0.1250000000000000
  0.0000000000000000  0.7500000000000000  0.3750000000000000
  0.0000000000000000  0.7500000000000000  0.8750000000000000
  0.0000000000000000  0.2500000000000000  0.6250000000000000
  0.5000000000000000  0.7500000000000000  0.6250000000000000
  0.5000000000000000  0.2500000000000000  0.8750000000000000
  0.5000000000000000  0.2500000000000000  0.3750000000000000
  0.5000000000000000  0.7500000000000000  0.1250000000000000
  0.0000000000000000  0.0000000000000000  0.0000000000000000
  0.5000000000000000  0.0000000000000000  0.5000000000000000
  0.0000000000000000  0.5000000000000000  0.5000000000000000
  0.5000000000000000  0.5000000000000000  0.0000000000000000
  0.7500000000000000  0.2500000000000000  0.2500000000000000
  0.7500000000000000  0.7500000000000000  0.7500000000000000
  0.2500000000000000  0.2500000000000000  0.7500000000000000
  0.2500000000000000  0.7500000000000000  0.2500000000000000
  0.5000000000000000  0.5000000000000000  0.5000000000000000
  0.0000000000000000  0.5000000000000000  0.0000000000000000
  0.5000000000000000  0.0000000000000000  0.0000000000000000
  0.0000000000000000  0.0000000000000000  0.5000000000000000
  0.2500000000000000  0.7500000000000000  0.7500000000000000
  0.2500000000000000  0.2500000000000000  0.2500000000000000
  0.7500000000000000  0.7500000000000000  0.2500000000000000
  0.7500000000000000  0.2500000000000000  0.7500000000000000
  0.2796500000000000  0.1056400000000000  0.1989400000000000
  0.2203500000000000  0.8943600000000000  0.6989400000000000
  0.7203500000000000  0.6056400000000000  0.3010600000000000
  0.7796500000000000  0.3943600000000000  0.8010600000000000
  0.8556400000000000  0.5296500000000000  0.0510600000000000
  0.6443600000000000  0.4703500000000000  0.5510600000000000
  0.3556400000000000  0.9703500000000000  0.9489400000000000
  0.1443600000000000  0.0296500000000000  0.4489400000000000
  0.7203500000000000  0.8943600000000000  0.8010600000000000
  0.7796500000000000  0.1056400000000000  0.3010600000000000
  0.2796500000000000  0.3943600000000000  0.6989400000000000
  0.2203500000000000  0.6056400000000000  0.1989400000000000
  0.1443600000000000  0.4703500000000000  0.9489400000000000
  0.3556400000000000  0.5296500000000000  0.4489400000000000
  0.6443600000000000  0.0296500000000000  0.0510600000000000
  0.8556400000000000  0.9703500000000000  0.5510600000000000
  0.7796500000000000  0.6056400000000000  0.6989400000000000
  0.7203500000000000  0.3943600000000000  0.1989400000000000
  0.2203500000000000  0.1056400000000000  0.8010600000000000
  0.2796500000000000  0.8943600000000000  0.3010600000000000
  0.3556400000000000  0.0296500000000000  0.5510600000000000
  0.1443600000000000  0.9703500000000000  0.0510600000000000
  0.8556400000000000  0.4703500000000000  0.4489400000000000
  0.6443600000000000  0.5296500000000000  0.9489400000000000
  0.2203500000000000  0.3943600000000000  0.3010600000000000
  0.2796500000000000  0.6056400000000000  0.8010600000000000
  0.7796500000000000  0.8943600000000000  0.1989400000000000
  0.7203500000000000  0.1056400000000000  0.6989400000000000
  0.6443600000000000  0.9703500000000000  0.4489400000000000
  0.8556400000000000  0.0296500000000000  0.9489400000000000
  0.1443600000000000  0.5296500000000000  0.5510600000000000
  0.3556400000000000  0.4703500000000000  0.0510600000000000
  0.1989400000000000  0.2796500000000000  0.1056400000000000
  0.6989400000000000  0.2203500000000000  0.8943600000000000
  0.3010600000000000  0.7203500000000000  0.6056400000000000
  0.8010600000000000  0.7796500000000000  0.3943600000000000
  0.0296500000000000  0.4489400000000000  0.1443600000000000
  0.9703500000000000  0.9489400000000000  0.3556400000000000
  0.4703500000000000  0.5510600000000000  0.6443600000000000
  0.5296500000000000  0.0510600000000000  0.8556400000000000
  0.8010600000000000  0.7203500000000000  0.8943600000000000
  0.3010600000000000  0.7796500000000000  0.1056400000000000
  0.6989400000000000  0.2796500000000000  0.3943600000000000
  0.1989400000000000  0.2203500000000000  0.6056400000000000
  0.9703500000000000  0.5510600000000000  0.8556400000000000
  0.0296500000000000  0.0510600000000000  0.6443600000000000
  0.5296500000000000  0.4489400000000000  0.3556400000000000
  0.4703500000000000  0.9489400000000000  0.1443600000000000
  0.6989400000000000  0.7796500000000000  0.6056400000000000
  0.1989400000000000  0.7203500000000000  0.3943600000000000
  0.8010600000000000  0.2203500000000000  0.1056400000000000
  0.3010600000000000  0.2796500000000000  0.8943600000000000
  0.5296500000000000  0.9489400000000000  0.6443600000000000
  0.4703500000000000  0.4489400000000000  0.8556400000000000
  0.9703500000000000  0.0510600000000000  0.1443600000000000
  0.0296500000000000  0.5510600000000000  0.3556400000000000
  0.3010600000000000  0.2203500000000000  0.3943600000000000
  0.8010600000000000  0.2796500000000000  0.6056400000000000
  0.1989400000000000  0.7796500000000000  0.8943600000000000
  0.6989400000000000  0.7203500000000000  0.1056400000000000
  0.4703500000000000  0.0510600000000000  0.3556400000000000
  0.5296500000000000  0.5510600000000000  0.1443600000000000
  0.0296500000000000  0.9489400000000000  0.8556400000000000
  0.9703500000000000  0.4489400000000000  0.6443600000000000
  0.1056400000000000  0.1989400000000000  0.2796500000000000
  0.8943600000000000  0.6989400000000000  0.2203500000000000
  0.6056400000000000  0.3010600000000000  0.7203500000000000
  0.3943600000000000  0.8010600000000000  0.7796500000000000
  0.9489400000000000  0.3556400000000000  0.9703500000000000
  0.4489400000000000  0.1443600000000000  0.0296500000000000
  0.0510600000000000  0.8556400000000000  0.5296500000000000
  0.5510600000000000  0.6443600000000000  0.4703500000000000
  0.8943600000000000  0.8010600000000000  0.7203500000000000
  0.1056400000000000  0.3010600000000000  0.7796500000000000
  0.3943600000000000  0.6989400000000000  0.2796500000000000
  0.6056400000000000  0.1989400000000000  0.2203500000000000
  0.0510600000000000  0.6443600000000000  0.0296500000000000
  0.5510600000000000  0.8556400000000000  0.9703500000000000
  0.9489400000000000  0.1443600000000000  0.4703500000000000
  0.4489400000000000  0.3556400000000000  0.5296500000000000
  0.6056400000000000  0.6989400000000000  0.7796500000000000
  0.3943600000000000  0.1989400000000000  0.7203500000000000
  0.1056400000000000  0.8010600000000000  0.2203500000000000
  0.8943600000000000  0.3010600000000000  0.2796500000000000
  0.4489400000000000  0.8556400000000000  0.4703500000000000
  0.9489400000000000  0.6443600000000000  0.5296500000000000
  0.5510600000000000  0.3556400000000000  0.0296500000000000
  0.0510600000000000  0.1443600000000000  0.9703500000000000
  0.3943600000000000  0.3010600000000000  0.2203500000000000
  0.6056400000000000  0.8010600000000000  0.2796500000000000
  0.8943600000000000  0.1989400000000000  0.7796500000000000
  0.1056400000000000  0.6989400000000000  0.7203500000000000
  0.5510600000000000  0.1443600000000000  0.5296500000000000
  0.0510600000000000  0.3556400000000000  0.4703500000000000
  0.4489400000000000  0.6443600000000000  0.9703500000000000
  0.9489400000000000  0.8556400000000000  0.0296500000000000
