Li1 Al1 O2
1.0
4.865056 -1.414039 0.000000
4.865056 1.414039 0.000000
4.454063 0.000000 2.414457
Li Al O
1 1 2
direct
0.000000 0.000000 0.000000 Li
0.500000 0.500000 0.500000 Al
0.238118 0.238118 0.238118 O
0.761882 0.761882 0.761882 O

0.000000 0.000000 0.000000
0.000000 0.000000 0.000000
0.000000 0.000000 0.000000
0.000000 0.000000 0.000000
