$cell vectors
1.0
 39.2939815105316441    0.0000000000000000    0.0000000000000000
  0.0000000000000000    8.1569961617907758    0.0000000000000000
  0.0000000000000000    0.0000000000000000   11.5799945511262887
 24 48 144
Direct
  0.0000000000000000    0.4999999999999999    0.5000000000000002 # K1
  0.0973000000000000    0.4968000000000001    0.5119999999999999 # K2
  0.0000000000000000    0.0000000000000000    0.0000000000000000 # K3
  0.0973000000000000    0.9967999999999999    0.0120000000000001 # K4
  0.4999999999999999    0.4999999999999999    0.0000000000000000 # K5
  0.5972999999999999    0.4968000000000001    0.0120000000000001 # K6
  0.4999999999999999    0.0000000000000000    0.5000000000000002 # K7
  0.5972999999999999    0.9967999999999999    0.5119999999999999 # K8
  0.9026999999999999    0.5031999999999999    0.5119999999999999 # K9
  0.9026999999999999    0.0031999999999998    0.0120000000000001 # K10
  0.4027000000000000    0.5031999999999999    0.0120000000000001 # K11
  0.4027000000000000    0.0031999999999998    0.5119999999999999 # K12
  0.2500000000000000    0.7499999999999999    0.7500000000000001 # K13
  0.1527000000000001    0.7468000000000001    0.7620000000000002 # K14
  0.2500000000000000    0.2499999999999999    0.2499999999999999 # K15
  0.1527000000000001    0.2468000000000002    0.2620000000000000 # K16
  0.7500000000000001    0.7499999999999999    0.2499999999999999 # K17
  0.6527000000000001    0.7468000000000001    0.2620000000000000 # K18
  0.7500000000000001    0.2499999999999999    0.7500000000000001 # K19
  0.6527000000000001    0.2468000000000002    0.7620000000000002 # K20
  0.3473000000000001    0.7531999999999998    0.7620000000000002 # K21
  0.3473000000000001    0.2531999999999998    0.2620000000000000 # K22
  0.8472999999999998    0.7531999999999998    0.2620000000000000 # K23
  0.8472999999999998    0.2531999999999998    0.7620000000000002 # K24
  0.0926000000000000    0.4748000000000002    1.0020000000000002 # I1
  0.0504000000000000    0.7550999999999995    0.2560000000000002 # I2
  0.0500000000000000    0.2551000000000003    0.2430000000000002 # I3
  0.0926000000000000    0.9748000000000001    0.5019999999999999 # I4
  0.0504000000000000    0.2551000000000003    0.7560000000000004 # I5
  0.0500000000000000    0.7551000000000003    0.7430000000000000 # I6
  0.5926000000000000    0.4748000000000002    0.5019999999999999 # I7
  0.5503999999999999    0.7551000000000003    0.7560000000000004 # I8
  0.5500000000000000    0.2551000000000003    0.7430000000000000 # I9
  0.5926000000000000    0.9748000000000001    1.0020000000000002 # I10
  0.5503999999999999    0.2551000000000003    0.2560000000000002 # I11
  0.5500000000000000    0.7550999999999995    0.2430000000000002 # I12
  0.9074000000000000    0.5252000000000002    1.0020000000000002 # I13
  0.9496000000000000    0.2448999999999997    0.2560000000000002 # I14
  0.9500000000000000    0.7448999999999997    0.2430000000000002 # I15
  0.9074000000000000    0.0252000000000003    0.5019999999999999 # I16
  0.9496000000000000    0.7448999999999997    0.7560000000000004 # I17
  0.9500000000000000    0.2449000000000003    0.7430000000000000 # I18
  0.4073999999999999    0.5252000000000002    0.5019999999999999 # I19
  0.4496000000000000    0.2449000000000003    0.7560000000000004 # I20
  0.4500000000000000    0.7448999999999997    0.7430000000000000 # I21
  0.4073999999999999    0.0252000000000003    1.0020000000000002 # I22
  0.4496000000000000    0.7448999999999997    0.2560000000000002 # I23
  0.4500000000000000    0.2448999999999997    0.2430000000000002 # I24
  0.1574000000000000    0.7247999999999997    0.2520000000000000 # I25
  0.1996000000000001    1.0050999999999994    0.5060000000000001 # I26
  0.2000000000000000    0.5051000000000002    0.4930000000000002 # I27
  0.1574000000000000    0.2248000000000002    0.7520000000000002 # I28
  0.1996000000000001    0.5051000000000002    1.0060000000000004 # I29
  0.2000000000000000    1.0050999999999994   -0.0070000000000001 # I30
  0.6573999999999999    0.7247999999999997    0.7520000000000002 # I31
  0.6996000000000000    1.0051000000000001    1.0060000000000004 # I32
  0.7000000000000000    0.5050999999999995   -0.0070000000000001 # I33
  0.6573999999999999    0.2247999999999996    0.2520000000000000 # I34
  0.6996000000000000    0.5051000000000002    0.5060000000000001 # I35
  0.7000000000000000    1.0050999999999994    0.4930000000000002 # I36
  0.3426000000000001    0.7751999999999997    0.2520000000000000 # I37
  0.3004000000000000    0.4949000000000003    0.5060000000000001 # I38
  0.3000000000000000   -0.0050999999999997    0.4930000000000002 # I39
  0.3426000000000001    0.2752000000000003    0.7520000000000002 # I40
  0.3004000000000000   -0.0050999999999997    1.0060000000000004 # I41
  0.3000000000000000    0.4948999999999997   -0.0070000000000001 # I42
  0.8425999999999999    0.7751999999999997    0.7520000000000002 # I43
  0.8004000000000000    0.4949000000000003    1.0060000000000004 # I44
  0.8000000000000000   -0.0051000000000003   -0.0070000000000001 # I45
  0.8425999999999999    0.2751999999999997    0.2520000000000000 # I46
  0.8004000000000000   -0.0051000000000003    0.5060000000000001 # I47
  0.8000000000000000    0.4949000000000003    0.4930000000000002 # I48
  0.0990000000000000    0.3180000000000004    1.1080000000000003 # O1
  0.0960000000000000    0.3430000000000000    0.8770000000000002 # O2
  0.0460000000000000    0.4780000000000001    1.0080000000000000 # O3
  0.0840000000000000    0.7189999999999998    0.1600000000000001 # O4
  0.0500000000000000    0.5629999999999998    0.3370000000000003 # O5
  0.0169999999999999    0.6999999999999995    0.1459999999999999 # O6
  0.0490000000000000    0.0640000000000000    0.1659999999999999 # O7
  0.0850000000000000    0.2240000000000003    0.3450000000000003 # O8
  0.0140000000000000    0.2129999999999997    0.3519999999999999 # O9
  0.0990000000000000    0.8179999999999997    0.6080000000000001 # O10
  0.0960000000000000    0.8430000000000000    0.3769999999999999 # O11
  0.0460000000000000    0.9780000000000000    0.5080000000000002 # O12
  0.0840000000000000    0.2189999999999998    0.6600000000000004 # O13
  0.0500000000000000    0.0629999999999999    0.8370000000000001 # O14
  0.0169999999999999    0.2000000000000002    0.6460000000000001 # O15
  0.0490000000000000    0.5640000000000001    0.6660000000000001 # O16
  0.0850000000000000    0.7239999999999996    0.8450000000000001 # O17
  0.0140000000000000    0.7129999999999996    0.8520000000000002 # O18
  0.5989999999999999    0.3179999999999997    0.6080000000000001 # O19
  0.5959999999999999    0.3430000000000000    0.3769999999999999 # O20
  0.5460000000000000    0.4780000000000001    0.5080000000000002 # O21
  0.5839999999999999    0.7189999999999998    0.6600000000000004 # O22
  0.5500000000000000    0.5629999999999998    0.8370000000000001 # O23
  0.5169999999999999    0.6999999999999995    0.6460000000000001 # O24
  0.5489999999999999    0.0640000000000000    0.6660000000000001 # O25
  0.5850000000000000    0.2240000000000003    0.8450000000000001 # O26
  0.5139999999999998    0.2130000000000004    0.8520000000000002 # O27
  0.5989999999999999    0.8180000000000003    1.1080000000000003 # O28
  0.5959999999999999    0.8430000000000000    0.8770000000000002 # O29
  0.5460000000000000    0.9780000000000000    1.0080000000000000 # O30
  0.5839999999999999    0.2189999999999998    0.1600000000000001 # O31
  0.5500000000000000    0.0629999999999999    0.3370000000000003 # O32
  0.5169999999999999    0.2000000000000002    0.1459999999999999 # O33
  0.5489999999999999    0.5640000000000001    0.1659999999999999 # O34
  0.5850000000000000    0.7239999999999996    0.3450000000000003 # O35
  0.5139999999999998    0.7129999999999996    0.3519999999999999 # O36
  0.9010000000000001    0.6820000000000002    1.1080000000000003 # O37
  0.9039999999999998    0.6569999999999999    0.8770000000000002 # O38
  0.9540000000000002    0.5219999999999998    1.0080000000000000 # O39
  0.9160000000000000    0.2810000000000002    0.1600000000000001 # O40
  0.9500000000000000    0.4370000000000001    0.3370000000000003 # O41
  0.9829999999999999    0.2999999999999998    0.1459999999999999 # O42
  0.9509999999999997    0.9359999999999999    0.1659999999999999 # O43
  0.9150000000000000    0.7759999999999995    0.3450000000000003 # O44
  0.9859999999999998    0.7870000000000001    0.3519999999999999 # O45
  0.9010000000000001    0.1820000000000002    0.6080000000000001 # O46
  0.9039999999999998    0.1570000000000000    0.3769999999999999 # O47
  0.9540000000000002    0.0219999999999999    0.5080000000000002 # O48
  0.9160000000000000    0.7810000000000001    0.6600000000000004 # O49
  0.9500000000000000    0.9369999999999999    0.8370000000000001 # O50
  0.9829999999999999    0.8000000000000004    0.6460000000000001 # O51
  0.9509999999999997    0.4359999999999999    0.6660000000000001 # O52
  0.9150000000000000    0.2760000000000003    0.8450000000000001 # O53
  0.9859999999999998    0.2870000000000003    0.8520000000000002 # O54
  0.4010000000000001    0.6820000000000002    0.6080000000000001 # O55
  0.4039999999999999    0.6569999999999999    0.3769999999999999 # O56
  0.4540000000000000    0.5219999999999998    0.5080000000000002 # O57
  0.4159999999999999    0.2810000000000002    0.6600000000000004 # O58
  0.4500000000000000    0.4370000000000001    0.8370000000000001 # O59
  0.4830000000000000    0.3000000000000004    0.6460000000000001 # O60
  0.4510000000000001    0.9359999999999999    0.6660000000000001 # O61
  0.4149999999999999    0.7760000000000001    0.8450000000000001 # O62
  0.4860000000000002    0.7870000000000001    0.8520000000000002 # O63
  0.4010000000000001    0.1820000000000002    1.1080000000000003 # O64
  0.4039999999999999    0.1570000000000000    0.8770000000000002 # O65
  0.4540000000000000    0.0219999999999999    1.0080000000000000 # O66
  0.4159999999999999    0.7810000000000001    0.1600000000000001 # O67
  0.4500000000000000    0.9369999999999999    0.3370000000000003 # O68
  0.4830000000000000    0.7999999999999996    0.1459999999999999 # O69
  0.4510000000000001    0.4359999999999999    0.1659999999999999 # O70
  0.4149999999999999    0.2760000000000003    0.3450000000000003 # O71
  0.4860000000000002    0.2870000000000003    0.3519999999999999 # O72
  0.1510000000000000    0.5679999999999998    0.3580000000000002 # O73
  0.1539999999999999    0.5930000000000001    0.1270000000000001 # O74
  0.2040000000000000    0.7280000000000001    0.2580000000000003 # O75
  0.1659999999999999    0.9689999999999998    0.4099999999999999 # O76
  0.2000000000000000    0.8129999999999998    0.5870000000000002 # O77
  0.2330000000000001    0.9500000000000002    0.3960000000000002 # O78
  0.2010000000000000    0.3140000000000000    0.4160000000000003 # O79
  0.1649999999999999    0.4740000000000003    0.5950000000000001 # O80
  0.2360000000000000    0.4629999999999997    0.6020000000000002 # O81
  0.1510000000000000    0.0680000000000004    0.8580000000000000 # O82
  0.1539999999999999    0.0930000000000000    0.6269999999999998 # O83
  0.2040000000000000    0.2280000000000001    0.7580000000000001 # O84
  0.1659999999999999    0.4689999999999998    0.9100000000000001 # O85
  0.2000000000000000    0.3129999999999998    1.0870000000000006 # O86
  0.2330000000000001    0.4500000000000002    0.8960000000000004 # O87
  0.2010000000000000    0.8139999999999999   -0.0840000000000000 # O88
  0.1650000000000001    0.9739999999999995    0.0949999999999998 # O89
  0.2360000000000000    0.9629999999999996    0.1020000000000000 # O90
  0.6510000000000000    0.5679999999999998    0.8580000000000000 # O91
  0.6540000000000000    0.5930000000000001    0.6269999999999998 # O92
  0.7040000000000000    0.7280000000000001    0.7580000000000001 # O93
  0.6659999999999999    0.9689999999999998    0.9100000000000001 # O94
  0.7000000000000000    0.8129999999999998    1.0870000000000006 # O95
  0.7330000000000000    0.9500000000000002    0.8960000000000004 # O96
  0.7010000000000001    0.3140000000000000   -0.0840000000000000 # O97
  0.6650000000000001    0.4739999999999996    0.0949999999999998 # O98
  0.7360000000000000    0.4629999999999997    0.1020000000000000 # O99
  0.6510000000000000    0.0679999999999998    0.3580000000000002 # O100
  0.6540000000000000    0.0930000000000000    0.1270000000000001 # O101
  0.7040000000000000    0.2280000000000001    0.2580000000000003 # O102
  0.6659999999999999    0.4689999999999998    0.4099999999999999 # O103
  0.7000000000000000    0.3129999999999998    0.5870000000000002 # O104
  0.7330000000000000    0.4500000000000002    0.3960000000000002 # O105
  0.7010000000000001    0.8139999999999999    0.4160000000000003 # O106
  0.6650000000000001    0.9739999999999995    0.5950000000000001 # O107
  0.7360000000000000    0.9629999999999996    0.6020000000000002 # O108
  0.3489999999999999    0.9320000000000002    0.3580000000000002 # O109
  0.3460000000000000    0.9069999999999999    0.1270000000000001 # O110
  0.2960000000000000    0.7719999999999999    0.2580000000000003 # O111
  0.3340000000000000    0.5310000000000001    0.4099999999999999 # O112
  0.3000000000000000    0.6870000000000001    0.5870000000000002 # O113
  0.2670000000000001    0.5500000000000003    0.3960000000000002 # O114
  0.2989999999999999    0.1860000000000000    0.4160000000000003 # O115
  0.3350000000000000    0.0260000000000003    0.5950000000000001 # O116
  0.2640000000000001    0.0370000000000002    0.6020000000000002 # O117
  0.3489999999999999    0.4320000000000002    0.8580000000000000 # O118
  0.3460000000000000    0.4070000000000000    0.6269999999999998 # O119
  0.2960000000000000    0.2719999999999998    0.7580000000000001 # O120
  0.3340000000000000    0.0310000000000002    0.9100000000000001 # O121
  0.3000000000000000    0.1870000000000001    1.0870000000000006 # O122
  0.2670000000000001    0.0500000000000004    0.8960000000000004 # O123
  0.2989999999999999    0.6859999999999999   -0.0840000000000000 # O124
  0.3350000000000000    0.5259999999999995    0.0949999999999998 # O125
  0.2640000000000001    0.5370000000000001    0.1020000000000000 # O126
  0.8490000000000000    0.9320000000000002    0.8580000000000000 # O127
  0.8460000000000000    0.9069999999999999    0.6269999999999998 # O128
  0.7960000000000000    0.7719999999999999    0.7580000000000001 # O129
  0.8340000000000001    0.5310000000000001    0.9100000000000001 # O130
  0.8000000000000000    0.6870000000000001    1.0870000000000006 # O131
  0.7670000000000000    0.5500000000000003    0.8960000000000004 # O132
  0.7989999999999999    0.1860000000000000   -0.0840000000000000 # O133
  0.8350000000000000    0.0260000000000003    0.0949999999999998 # O134
  0.7639999999999999    0.0370000000000002    0.1020000000000000 # O135
  0.8490000000000000    0.4320000000000002    0.3580000000000002 # O136
  0.8460000000000000    0.4070000000000000    0.1270000000000001 # O137
  0.7960000000000000    0.2719999999999998    0.2580000000000003 # O138
  0.8340000000000001    0.0310000000000002    0.4099999999999999 # O139
  0.8000000000000000    0.1870000000000001    0.5870000000000002 # O140
  0.7670000000000000    0.0500000000000004    0.3960000000000002 # O141
  0.7989999999999999    0.6859999999999999    0.4160000000000003 # O142
  0.8350000000000000    0.5260000000000002    0.5950000000000001 # O143
  0.7639999999999999    0.5370000000000001    0.6020000000000002 # O144
