$cell vectors
1.0
  6.2169970746418057    0.0000000000000000    0.0000000000000000
  0.0000000000000000    3.6769982698179073    0.0000000000000000
  0.0000000000000000    0.0000000000000000    7.7939963325974366
 4 10
Direct
  0.0000000000000000    0.0000000000000000    0.0000000000000000 # Ta1
  0.5000000000000000    0.5000000000000000    0.0000000000000000 # Ta2
  0.0000000000000000    0.0000000000000000    0.4999999999999997 # Ta3
  0.5000000000000000    0.5000000000000000    0.4999999999999997 # Ta4
  0.0000000000000000    0.5000000000000000    0.0000000000000000 # O1
  0.3190000000000003    0.9980000000000000    0.0000000000000000 # O2
  0.0000000000000000    0.0000000000000000    0.2499999999999998 # O3
  0.5000000000000000    0.5000000000000000    0.2499999999999998 # O4
  0.6810000000000006    0.0020000000000001    0.0000000000000000 # O5
  0.3190000000000003    0.0020000000000001    0.4999999999999997 # O6
  0.0000000000000000    0.5000000000000000    0.4999999999999997 # O7
  0.6810000000000006    0.9980000000000000    0.4999999999999997 # O8
  0.0000000000000000    0.0000000000000000    0.7499999999999996 # O9
  0.5000000000000000    0.5000000000000000    0.7499999999999996 # O10
