$cell vectors
1.0
  4.8089977371646224    0.0000000000000000    0.0000000000000000
  0.0000000000000000    6.9569967264408987    0.0000000000000000
  0.0000000000000000    0.0000000000000000    8.4659960163933636
 4 16 4
Direct
  0.0119999999999997    0.1156999999999999    0.1637000000000000 # Y1
  0.4880000000000002    0.8843000000000002    0.6637000000000000 # Y2
  0.5119999999999998    0.3843000000000004    0.8362999999999999 # Y3
  0.9880000000000001    0.6157000000000005    0.3363000000000000 # Y4
  0.2884000000000000    0.3950999999999996    0.0935000000000002 # O1
  0.4886999999999999    0.5533000000000002    0.2960999999999998 # O2
  0.7469000000000005    0.4149000000000002    0.1135000000000000 # O3
  0.0025000000000000    0.7968999999999998    0.1181999999999998 # O4
  0.2116000000000000    0.6048999999999997    0.5935000000000004 # O5
  0.0113000000000001    0.4466999999999998    0.7961000000000005 # O6
  0.7531000000000003    0.5850999999999997    0.6135000000000000 # O7
  0.4974999999999999    0.2031000000000001    0.6182000000000004 # O8
  0.7883999999999999    0.1049000000000000    0.9065000000000004 # O9
  0.9886999999999997    0.9467000000000002    0.7039000000000001 # O10
  0.2469000000000006    0.0851000000000001    0.8865000000000000 # O11
  0.5024999999999999    0.7031000000000004    0.8818000000000001 # O12
  0.7115999999999999    0.8951000000000001    0.4064999999999998 # O13
  0.5113000000000000    0.0532999999999998    0.2039000000000001 # O14
  0.2531000000000004    0.9148999999999999    0.3864999999999999 # O15
  0.9974999999999998    0.2969000000000003    0.3818000000000001 # O16
  0.5043000000000003    0.4514000000000001    0.1706999999999998 # C1
  0.9957000000000006    0.5485999999999999    0.6707000000000005 # C2
  0.0043000000000003    0.0486000000000002    0.8293000000000003 # C3
  0.4957000000000007    0.9513999999999998    0.3293000000000002 # C4
