$cell vectors
1.0
  6.9989967066781427    0.0000000000000000    0.0000000000000000
  0.0000000000000000   13.8479934839375538    0.0000000000000000
  0.0000000000000000    0.0000000000000000    9.0939957208931332
 4 12 28 8
Direct
  0.2645999999999998    0.0708000000000001    1.0000000000000000 # Ta1
  0.7354000000000002    0.9292000000000002    0.4999999999999998 # Ta2
  0.2354000000000002    0.5707999999999999    0.4999999999999998 # Ta3
  0.7646000000000006    0.4292000000000001    1.0000000000000000 # Ta4
  0.2712999999999999    0.0994000000000000    0.5049000000000005 # K1
  0.7274000000000004    0.1458000000000001    0.2311999999999999 # K2
  0.2374000000000003    0.3420000000000000    0.7818000000000003 # K3
  0.7287000000000000    0.9005999999999998    0.0049000000000000 # K4
  0.2726000000000005    0.8541999999999998    0.7311999999999996 # K5
  0.7626000000000004    0.6579999999999998    0.2818000000000000 # K6
  0.2287000000000000    0.5994000000000004    0.0049000000000000 # K7
  0.7726000000000006    0.6457999999999999    0.7311999999999996 # K8
  0.2626000000000004    0.8420000000000003    0.2818000000000000 # K9
  0.7713000000000000    0.4006000000000001    0.5049000000000005 # K10
  0.2274000000000002    0.3542000000000001    0.2311999999999999 # K11
  0.7374000000000004    0.1580000000000001    0.7818000000000003 # K12
  0.5363000000000001    0.0794000000000000    0.9889999999999997 # F1
  0.2738000000000000    0.2062000000000000    0.9549999999999996 # F2
  0.3063000000000002    0.0788000000000002    0.7890000000000000 # F3
  0.2943000000000000    0.0586999999999999    1.2048000000000001 # F4
  0.3213999999999999   -0.0659999999999999    1.0189999999999995 # F5
  0.5262000000000004    0.2736999999999999    0.3711000000000000 # F6
  0.9790000000000001    0.2450000000000001    0.6142999999999998 # F7
  0.4637000000000007    0.9206000000000000    0.4890000000000001 # F8
  0.7262000000000001    0.7938000000000000    0.4549999999999999 # F9
  0.6937000000000005    0.9212000000000001    0.2890000000000004 # F10
  0.7056999999999999    0.9413000000000000    0.7047999999999996 # F11
  0.6785999999999999    1.0659999999999998    0.5189999999999999 # F12
  0.4738000000000003    0.7262999999999999    0.8710999999999998 # F13
  0.0209999999999999    0.7549999999999998    0.1143000000000001 # F14
 -0.0363000000000001    0.5794000000000001    0.4890000000000001 # F15
  0.2262000000000000    0.7061999999999997    0.4549999999999999 # F16
  0.1937000000000005    0.5788000000000000    0.2890000000000004 # F17
  0.2057000000000000    0.5587000000000001    0.7047999999999996 # F18
  0.1786000000000000    0.4340000000000002    0.5189999999999999 # F19
  0.9738000000000001    0.7737000000000001    0.8710999999999998 # F20
  0.5209999999999999    0.7449999999999999    0.1143000000000001 # F21
  1.0363000000000000    0.4206000000000001    0.9889999999999997 # F22
  0.7738000000000007    0.2938000000000002    0.9549999999999996 # F23
  0.8063000000000002    0.4212000000000000    0.7890000000000000 # F24
  0.7942999999999999    0.4413000000000002    1.2048000000000001 # F25
  0.8214000000000006    0.5660000000000001    1.0189999999999995 # F26
  0.0261999999999997    0.2262999999999999    0.3711000000000000 # F27
  0.4790000000000001    0.2550000000000001    0.6142999999999998 # F28
  0.0195000000000003    0.0431000000000002    1.1098000000000001 # O1
 -0.0039999999999996    0.0347000000000000    0.9309999999999997 # O2
  0.9805000000000004    0.9569000000000001    0.6098000000000002 # O3
  1.0040000000000002    0.9653000000000000    0.4310000000000000 # O4
  0.4805000000000004    0.5431000000000000    0.6098000000000002 # O5
  0.5040000000000003    0.5346999999999998    0.4310000000000000 # O6
  0.5195000000000004    0.4569000000000000    1.1098000000000001 # O7
  0.4960000000000005    0.4653000000000001    0.9309999999999997 # O8
