$cell vectors
1.0
 13.3379937239138560    0.0000000000000000    0.0000000000000000
  0.0000000000000000   12.8889939351871110    0.0000000000000000
  0.0000000000000000    0.0000000000000000    5.8307972563650434
 16 16 64
Direct
  0.0000000000000000    0.0000000000000000    0.0000000000000000 # W1
  0.0000000000000000    0.0000000000000000    0.4999999999999995 # W2
  0.2500000000000000    0.2500000000000002    0.0300000000000000 # W3
  0.0000000000000000    0.5000000000000000    0.4999999999999995 # W4
  0.0000000000000000    0.5000000000000000    0.0000000000000000 # W5
  0.2500000000000000    0.7500000000000001    0.5299999999999996 # W6
  0.4999999999999999    0.0000000000000000    0.4999999999999995 # W7
  0.4999999999999999    0.0000000000000000    0.0000000000000000 # W8
  0.7500000000000001    0.2500000000000002    0.5299999999999996 # W9
  0.4999999999999999    0.5000000000000000    0.0000000000000000 # W10
  0.4999999999999999    0.5000000000000000    0.4999999999999995 # W11
  0.7500000000000001    0.7500000000000001    0.0300000000000000 # W12
  0.2500000000000000    0.7500000000000001    0.9700000000000000 # W13
  0.2500000000000000    0.2500000000000002    0.4699999999999995 # W14
  0.7500000000000001    0.7500000000000001    0.4699999999999995 # W15
  0.7500000000000001    0.2500000000000002    0.9700000000000000 # W16
  0.0120000000000001    0.2500000000000002    0.2500000000000002 # Cr1
  0.2500000000000000    0.0050000000000001    0.2500000000000002 # Cr2
  0.0120000000000001    0.7500000000000001    0.7499999999999999 # Cr3
  0.2500000000000000    0.5050000000000000    0.7499999999999999 # Cr4
  0.5120000000000001    0.2500000000000002    0.7499999999999999 # Cr5
  0.7500000000000001    0.0050000000000001    0.7499999999999999 # Cr6
  0.5120000000000001    0.7500000000000001    0.2500000000000002 # Cr7
  0.7500000000000001    0.5050000000000000    0.2500000000000002 # Cr8
  0.9880000000000000    0.7500000000000001    0.2500000000000002 # Cr9
  0.7500000000000001    0.9949999999999999    0.2500000000000002 # Cr10
  0.9880000000000000    0.2500000000000002    0.7499999999999999 # Cr11
  0.7500000000000001    0.4949999999999999    0.7499999999999999 # Cr12
  0.4880000000000000    0.7500000000000001    0.7499999999999999 # Cr13
  0.2500000000000000    0.9949999999999999    0.7499999999999999 # Cr14
  0.4880000000000000    0.2500000000000002    0.2500000000000002 # Cr15
  0.2500000000000000    0.4949999999999999    0.2500000000000002 # Cr16
  0.1040000000000000    0.0180000000000001    0.2159999999999996 # O1
  0.2640000000000001    0.0870000000000002    0.0180000000000002 # O2
  0.0000000000000000    0.1509999999999998    0.0000000000000000 # O3
  0.0000000000000000    0.3520000000000001    0.0000000000000000 # O4
  0.1510000000000001    0.2500000000000002    0.2500000000000002 # O5
  0.8479999999999998    0.2500000000000002    0.2500000000000002 # O6
  0.1040000000000000    0.5180000000000000    0.7160000000000001 # O7
  0.2640000000000001    0.5870000000000002    0.5179999999999997 # O8
  0.0000000000000000    0.6510000000000002    0.4999999999999995 # O9
  0.0000000000000000    0.8520000000000001    0.4999999999999995 # O10
  0.1510000000000001    0.7500000000000001    0.7499999999999999 # O11
  0.8479999999999998    0.7500000000000001    0.7499999999999999 # O12
  0.6040000000000001    0.0180000000000001    0.7160000000000001 # O13
  0.7640000000000001    0.0870000000000002    0.5179999999999997 # O14
  0.4999999999999999    0.1510000000000002    0.4999999999999995 # O15
  0.4999999999999999    0.3520000000000001    0.4999999999999995 # O16
  0.6510000000000002    0.2500000000000002    0.7499999999999999 # O17
  0.3480000000000002    0.2500000000000002    0.7499999999999999 # O18
  0.6040000000000001    0.5180000000000000    0.2159999999999996 # O19
  0.7640000000000001    0.5870000000000002    0.0180000000000002 # O20
  0.4999999999999999    0.6510000000000002    0.0000000000000000 # O21
  0.4999999999999999    0.8520000000000001    0.0000000000000000 # O22
  0.6510000000000002    0.7500000000000001    0.2500000000000002 # O23
  0.3480000000000002    0.7500000000000001    0.2500000000000002 # O24
  0.8959999999999997    0.9819999999999999    0.2159999999999996 # O25
  0.7360000000000000    0.9130000000000001    0.0180000000000002 # O26
  0.0000000000000000    0.8490000000000001    0.0000000000000000 # O27
  0.0000000000000000    0.6480000000000002    0.0000000000000000 # O28
  0.8490000000000000    0.7500000000000001    0.2500000000000002 # O29
  0.1519999999999999    0.7500000000000001    0.2500000000000002 # O30
  0.8959999999999997    0.4819999999999999    0.7160000000000001 # O31
  0.7360000000000000    0.4130000000000002    0.5179999999999997 # O32
  0.0000000000000000    0.3490000000000001    0.4999999999999995 # O33
  0.0000000000000000    0.1480000000000002    0.4999999999999995 # O34
  0.8490000000000000    0.2500000000000002    0.7499999999999999 # O35
  0.1519999999999999    0.2500000000000002    0.7499999999999999 # O36
  0.3960000000000000    0.9819999999999999    0.7160000000000001 # O37
  0.2360000000000000    0.9130000000000001    0.5179999999999997 # O38
  0.4999999999999999    0.8490000000000001    0.4999999999999995 # O39
  0.4999999999999999    0.6480000000000002    0.4999999999999995 # O40
  0.3489999999999999    0.7500000000000001    0.7499999999999999 # O41
  0.6519999999999998    0.7500000000000001    0.7499999999999999 # O42
  0.3960000000000000    0.4819999999999999    0.2159999999999996 # O43
  0.2360000000000000    0.4130000000000002    0.0180000000000002 # O44
  0.4999999999999999    0.3490000000000001    0.0000000000000000 # O45
  0.4999999999999999    0.1479999999999998    0.0000000000000000 # O46
  0.3489999999999999    0.2500000000000002    0.2500000000000002 # O47
  0.6519999999999998    0.2500000000000002    0.2500000000000002 # O48
  0.1040000000000000    0.9819999999999999    0.7839999999999994 # O49
  0.2640000000000001    0.9130000000000001    0.9819999999999999 # O50
  0.1040000000000000    0.4819999999999999    0.2839999999999999 # O51
  0.2640000000000001    0.4130000000000002    0.4820000000000003 # O52
  0.6040000000000001    0.9819999999999999    0.2839999999999999 # O53
  0.7640000000000001    0.9130000000000001    0.4820000000000003 # O54
  0.6040000000000001    0.4819999999999999    0.7839999999999994 # O55
  0.7640000000000001    0.4130000000000002    0.9819999999999999 # O56
  0.8959999999999997    0.0180000000000001    0.7839999999999994 # O57
  0.7360000000000000    0.0870000000000002    0.9819999999999999 # O58
  0.8959999999999997    0.5180000000000000    0.2839999999999999 # O59
  0.7360000000000000    0.5870000000000002    0.4820000000000003 # O60
  0.3960000000000000    0.0180000000000001    0.2839999999999999 # O61
  0.2360000000000000    0.0870000000000002    0.4820000000000003 # O62
  0.3960000000000000    0.5180000000000000    0.7839999999999994 # O63
  0.2360000000000000    0.5870000000000002    0.9819999999999999 # O64
