$cell vectors
1.0
  8.3459960728583766    0.0000000000000000    0.0000000000000000
  0.0000000000000000   17.6459916968199053    0.0000000000000000
  0.0000000000000000    0.0000000000000000    6.0439971560455348
 6 2 12 8 16
Direct
  0.0000000000000000    0.0000000000000000    0.0000000000000000 # Cs1
  0.0000000000000000    0.1871000000000002    0.5000000000000004 # Cs2
  0.5000000000000003    0.5000000000000000    0.5000000000000004 # Cs3
  0.5000000000000003    0.6871000000000003    0.0000000000000000 # Cs4
  0.0000000000000000    0.8129000000000002    0.5000000000000004 # Cs5
  0.5000000000000003    0.3129000000000001    0.0000000000000000 # Cs6
  0.0000000000000000    0.5000000000000000    0.0000000000000000 # V1
  0.5000000000000003    0.0000000000000000    0.5000000000000004 # V2
  0.2420000000000003    0.1574000000000002    0.9970000000000002 # Cl1
  0.2164000000000003    0.0000000000000000    0.5000000000000004 # Cl2
  0.7420000000000007    0.6574000000000000    0.4969999999999998 # Cl3
 -0.2835999999999999    0.5000000000000000    0.0000000000000000 # Cl4
  0.7580000000000002    0.8426000000000001    0.9970000000000002 # Cl5
  0.7836000000000004    0.0000000000000000    0.5000000000000004 # Cl6
  0.2579999999999999    0.3426000000000001    0.4969999999999998 # Cl7
  0.2835999999999999    0.5000000000000000    0.0000000000000000 # Cl8
  0.2420000000000003    0.8426000000000001    0.0029999999999997 # Cl9
  0.7420000000000000    0.3426000000000001    0.5030000000000001 # Cl10
  0.7580000000000002    0.1573999999999999    0.0029999999999997 # Cl11
  0.2579999999999999    0.6574000000000000    0.5030000000000001 # Cl12
  0.0000000000000000    0.4205999999999999    0.2284000000000001 # O1
  0.5000000000000003   -0.0794000000000001    0.7284000000000005 # O2
  0.0000000000000000    0.5794000000000002    0.2284000000000001 # O3
  0.5000000000000003    0.0794000000000001    0.7284000000000005 # O4
  0.0000000000000000    0.5794000000000002   -0.2284000000000001 # O5
  0.5000000000000003    0.0794000000000001    0.2716000000000003 # O6
  0.0000000000000000    0.4205999999999999   -0.2284000000000001 # O7
  0.5000000000000003   -0.0794000000000001    0.2716000000000003 # O8
 -0.0939999999999999    0.3968000000000001    0.3005000000000002 # H1
  0.0933000000000003    0.3982999999999999    0.3171999999999996 # H2
  0.4060000000000003   -0.1032000000000000    0.8005000000000007 # H3
  0.5932999999999999   -0.1017000000000001    0.8172000000000000 # H4
  0.0939999999999999    0.6032000000000000    0.3005000000000002 # H5
 -0.0932999999999997    0.6017000000000001    0.3171999999999996 # H6
  0.5940000000000002    0.1032000000000000    0.8005000000000007 # H7
  0.4067000000000000    0.1017000000000001    0.8172000000000000 # H8
 -0.0939999999999999    0.6032000000000000   -0.3005000000000002 # H9
  0.0933000000000003    0.6017000000000001   -0.3171999999999996 # H10
  0.4060000000000003    0.1032000000000000    0.1995000000000003 # H11
  0.5932999999999999    0.1017000000000001    0.1827999999999999 # H12
  0.0939999999999999    0.3968000000000001   -0.3005000000000002 # H13
 -0.0932999999999997    0.3982999999999999   -0.3171999999999996 # H14
  0.5940000000000002   -0.1032000000000000    0.1995000000000003 # H15
  0.4067000000000000   -0.1017000000000001    0.1827999999999999 # H16
