$cell vectors
1.0
 20.2299904809399713    0.0000000000000000    0.0000000000000000
  0.0000000000000000    5.7499972943848165    0.0000000000000000
  0.0000000000000000    0.0000000000000000    5.9499972002764601
 8 8 24 8
Direct
  0.8179999999999999    0.0000000000000000    0.2500000000000002 # K1
  0.3179999999999999    0.5000000000000006    0.7500000000000007 # K2
  0.1820000000000001    0.0000000000000000    0.7500000000000007 # K3
  0.6819999999999999    0.4999999999999995    0.2500000000000002 # K4
  0.1819999999999999    0.4999999999999995    0.2500000000000002 # K5
  0.6819999999999999    0.0000000000000000    0.7500000000000007 # K6
  0.8179999999999999    0.5000000000000006    0.7500000000000007 # K7
  0.3179999999999999    0.0000000000000000    0.2500000000000002 # K8
  0.1220000000000001    0.0000000000000000    0.2500000000000002 # C1
  0.6219999999999999    0.5000000000000006    0.7500000000000007 # C2
  0.8780000000000001    0.0000000000000000    0.7500000000000007 # C3
  0.3780000000000000    0.4999999999999995    0.2500000000000002 # C4
  0.8780000000000001    0.4999999999999995    0.2500000000000002 # C5
  0.3780000000000000    0.0000000000000000    0.7500000000000007 # C6
  0.1220000000000001    0.5000000000000006    0.7500000000000007 # C7
  0.6219999999999999    0.0000000000000000    0.2500000000000002 # C8
  0.1869999999999999    0.0000000000000000    0.2500000000000002 # O1
  0.0889999999999999    0.1460000000000004    0.3780000000000006 # O2
  0.6870000000000003    0.5000000000000006    0.7500000000000007 # O3
  0.5890000000000000    0.6460000000000000    0.8780000000000001 # O4
  0.8130000000000002    0.0000000000000000    0.7500000000000007 # O5
  0.9109999999999999    0.8539999999999998    0.6220000000000004 # O6
  0.3130000000000001    0.4999999999999995    0.2500000000000002 # O7
  0.4110000000000001    0.3540000000000001    0.1220000000000000 # O8
  0.8130000000000002    0.4999999999999995    0.2500000000000002 # O9
  0.9109999999999999    0.3540000000000001    0.3780000000000006 # O10
  0.3130000000000001    0.0000000000000000    0.7500000000000007 # O11
  0.4110000000000001    0.8540000000000005    0.8780000000000001 # O12
  0.1869999999999999    0.5000000000000006    0.7500000000000007 # O13
  0.0889999999999999    0.8539999999999998    0.1220000000000000 # O14
  0.5890000000000000    0.3540000000000001    0.6220000000000004 # O15
  0.9109999999999999    0.1460000000000004    0.8780000000000001 # O16
  0.4110000000000001    0.6460000000000000    0.3780000000000006 # O17
  0.4110000000000001    0.1460000000000004    0.6220000000000004 # O18
  0.9109999999999999    0.6460000000000000    0.1220000000000000 # O19
  0.5890000000000000    0.8539999999999998    0.3780000000000006 # O20
  0.0889999999999999    0.3540000000000001    0.8780000000000001 # O21
  0.0889999999999999    0.6460000000000000    0.6220000000000004 # O22
  0.6870000000000003    0.0000000000000000    0.2500000000000002 # O23
  0.5890000000000000    0.1460000000000004    0.1220000000000000 # O24
  0.0000000000000000    0.2499999999999998    0.1280000000000002 # Ag1
  0.5000000000000001    0.7500000000000002    0.6280000000000007 # Ag2
  0.0000000000000000    0.7500000000000002    0.3720000000000002 # Ag3
  0.5000000000000001    0.2499999999999998    0.8720000000000008 # Ag4
  0.0000000000000000    0.2499999999999998    0.6280000000000007 # Ag5
  0.5000000000000001    0.7500000000000002    0.1280000000000002 # Ag6
  0.0000000000000000    0.7500000000000002    0.8720000000000008 # Ag7
  0.5000000000000001    0.2499999999999998    0.3720000000000002 # Ag8
