$cell vectors
1.0
  5.4649974284892231    0.0000000000000000    0.0000000000000000
  0.0000000000000000    5.4709974256659706    0.0000000000000000
  0.0000000000000000    0.0000000000000000   12.2109942542144339
 8 4 16
Direct
  0.0109999999999998    0.0000000000000000    0.3609999999999999 # Nd1
  0.0109999999999998    0.5000000000000004    0.8610000000000001 # Nd2
  0.9890000000000000    0.4999999999999995    0.1390000000000002 # Nd3
  0.5109999999999998    0.0000000000000000    0.1390000000000002 # Nd4
  0.5109999999999998    0.5000000000000004    0.6390000000000000 # Nd5
  0.4890000000000002    0.0000000000000000    0.8610000000000001 # Nd6
  0.4890000000000002    0.5000000000000004    0.3609999999999999 # Nd7
  0.9890000000000000    0.0000000000000000    0.6390000000000000 # Nd8
  0.0000000000000000    0.0000000000000000    0.0000000000000000 # Ni1
  0.0000000000000000    0.5000000000000004    0.5000000000000002 # Ni2
  0.4999999999999999    0.0000000000000000    0.5000000000000002 # Ni3
  0.4999999999999999    0.4999999999999995    0.0000000000000000 # Ni4
  0.2500000000000005    0.2499999999999998    0.9890000000000000 # O1
  0.0540000000000004    0.0000000000000000    0.1759999999999999 # O2
  0.2500000000000005    0.7500000000000003    0.4889999999999997 # O3
  0.0540000000000004    0.5000000000000004    0.6760000000000002 # O4
  0.7499999999999994    0.7500000000000003    0.0110000000000000 # O5
  0.7499999999999994    0.2499999999999998    0.5110000000000003 # O6
  0.9459999999999995    0.5000000000000004    0.3239999999999998 # O7
  0.5539999999999994    0.0000000000000000    0.3239999999999998 # O8
  0.7499999999999994    0.7500000000000003    0.5110000000000003 # O9
  0.7499999999999994    0.2499999999999998    0.0110000000000000 # O10
  0.5539999999999994    0.5000000000000004    0.8240000000000000 # O11
  0.2499999999999995    0.2499999999999998    0.4889999999999997 # O12
  0.4459999999999997    0.0000000000000000    0.6760000000000002 # O13
  0.2500000000000005    0.7500000000000003    0.9890000000000000 # O14
  0.4459999999999997    0.5000000000000004    0.1759999999999999 # O15
  0.9459999999999995    0.0000000000000000    0.8240000000000000 # O16
