$cell vectors
1.0
 11.3659946518222270    0.0000000000000000    0.0000000000000000
  0.0000000000000000    9.9159953341078015    0.0000000000000000
  0.0000000000000000    0.0000000000000000    8.2709961081490153
 24 12 32
Direct
  0.2500000000000001    0.0000000000000000    0.0000000000000000 # Ir1
  0.2500000000000001    0.0000000000000000    0.3348000000000002 # Ir2
  0.3589000000000001    0.2499999999999999    0.6874999999999997 # Ir3
  0.5000000000000000    0.0000000000000000    0.0000000000000000 # Ir4
  0.7500000000000001    0.4999999999999998    0.0000000000000000 # Ir5
  0.7500000000000001    0.4999999999999998    0.3348000000000002 # Ir6
  0.8589000000000001    0.7499999999999997    0.6874999999999997 # Ir7
  0.0000000000000000    0.4999999999999998    0.0000000000000000 # Ir8
  0.7500000000000001    0.0000000000000000    0.0000000000000000 # Ir9
  0.7500000000000001    0.0000000000000000    0.6651999999999997 # Ir10
  0.2500000000000001    0.4999999999999998    0.0000000000000000 # Ir11
  0.2500000000000001    0.4999999999999998    0.6651999999999997 # Ir12
  0.1410999999999999    0.2499999999999999    0.3125000000000002 # Ir13
  0.6411000000000000    0.2499999999999999    0.6874999999999997 # Ir14
  0.5000000000000000    0.4999999999999998    0.0000000000000000 # Ir15
  0.1410999999999999    0.7499999999999997    0.6874999999999997 # Ir16
  0.3589000000000001    0.7499999999999997    0.3125000000000002 # Ir17
  0.8589000000000001    0.2499999999999999    0.3125000000000002 # Ir18
  0.7500000000000001    0.4999999999999998    0.6651999999999997 # Ir19
  0.7500000000000001    0.0000000000000000    0.3348000000000002 # Ir20
  0.2500000000000001    0.4999999999999998    0.3348000000000002 # Ir21
  0.6411000000000004    0.7499999999999997    0.3125000000000002 # Ir22
  0.2500000000000001    0.0000000000000000    0.6651999999999997 # Ir23
  0.0000000000000000    0.0000000000000000    0.0000000000000000 # Ir24
  0.5000000000000000    0.0000000000000000    0.5000000000000000 # Na1
  0.4230000000000000    0.2499999999999999    0.1959999999999999 # Na2
  0.0000000000000000    0.4999999999999998    0.5000000000000000 # Na3
 -0.0770000000000001    0.7499999999999997    0.1959999999999999 # Na4
  0.5770000000000002    0.7499999999999997    0.8039999999999999 # Na5
  0.0770000000000001    0.2499999999999999    0.8039999999999999 # Na6
  0.5770000000000002    0.2499999999999999    0.1959999999999999 # Na7
  0.0770000000000001    0.7499999999999997    0.1959999999999999 # Na8
  0.4230000000000000    0.7499999999999997    0.8039999999999999 # Na9
 -0.0770000000000001    0.2499999999999999    0.8039999999999999 # Na10
  0.5000000000000000    0.4999999999999998    0.5000000000000000 # Na11
  0.0000000000000000    0.0000000000000000    0.5000000000000000 # Na12
  0.2500000000000001    0.1590000000000001    0.5000000000000000 # B1
  0.6290000000000002    0.0769999999999998    0.8429999999999995 # B2
  0.5000000000000000    0.1499999999999999    0.7990000000000002 # B3
  0.7500000000000001    0.6589999999999997    0.5000000000000000 # B4
  0.1290000000000002    0.5770000000000001    0.8429999999999995 # B5
  0.0000000000000000    0.6500000000000001    0.7990000000000002 # B6
  0.7500000000000001    0.8410000000000000    0.5000000000000000 # B7
  0.3710000000000004    0.9229999999999996    0.1570000000000002 # B8
  0.5000000000000000    0.8499999999999995    0.2009999999999998 # B9
  0.2500000000000001    0.3409999999999996    0.5000000000000000 # B10
  0.8710000000000001    0.4229999999999999    0.1570000000000002 # B11
  0.0000000000000000    0.3499999999999999    0.2009999999999998 # B12
  0.7500000000000001    0.3409999999999996    0.5000000000000000 # B13
  0.3709999999999999    0.4229999999999999    0.8429999999999995 # B14
  0.5000000000000000    0.3499999999999999    0.7990000000000002 # B15
  0.2500000000000001    0.8410000000000000    0.5000000000000000 # B16
  0.8710000000000001    0.9229999999999996    0.8429999999999995 # B17
  0.0000000000000000    0.8499999999999995    0.7990000000000002 # B18
  0.2500000000000001    0.6589999999999997    0.5000000000000000 # B19
  0.6290000000000002    0.5769999999999996    0.1570000000000002 # B20
  0.7500000000000001    0.1590000000000001    0.5000000000000000 # B21
  0.1290000000000002    0.0769999999999998    0.1570000000000002 # B22
  0.0000000000000000    0.1499999999999999    0.2009999999999998 # B23
  0.6290000000000002    0.9229999999999996    0.1570000000000002 # B24
  0.1290000000000002    0.4229999999999999    0.1570000000000002 # B25
  0.3709999999999999    0.0769999999999998    0.8429999999999995 # B26
  0.8710000000000001    0.5770000000000001    0.8429999999999995 # B27
  0.3709999999999999    0.5769999999999996    0.1570000000000002 # B28
  0.5000000000000000    0.6499999999999996    0.2009999999999998 # B29
  0.8710000000000001    0.0769999999999998    0.1570000000000002 # B30
  0.6290000000000002    0.4229999999999999    0.8429999999999995 # B31
  0.1290000000000002    0.9229999999999996    0.8429999999999995 # B32
