$cell vectors
1.0
  5.8069972675639372    0.0000000000000000    0.0000000000000000
  0.0000000000000000   14.5819931385598949    0.0000000000000000
  0.0000000000000000    0.0000000000000000    4.7729977541041260
 8 20 8
Direct
  0.1552000000000003    0.1483000000000000    0.1352000000000000 # Si1
  0.6551999999999999    0.6483000000000000    0.1352000000000000 # Si2
  0.8447999999999997    0.8517000000000000    0.1352000000000000 # Si3
  0.3448000000000001    0.3517000000000001    0.1352000000000000 # Si4
  0.8447999999999997    0.1483000000000000    0.6352000000000000 # Si5
  0.3448000000000001    0.6483000000000000    0.6352000000000000 # Si6
  0.1552000000000003    0.8517000000000000    0.6352000000000000 # Si7
  0.6551999999999999    0.3517000000000001    0.6352000000000000 # Si8
  0.3295000000000001    0.0717999999999998    0.0490999999999998 # O1
  0.0931999999999998    0.1377000000000001    0.4785000000000005 # O2
  0.2499999999999997    0.2500000000000002    0.0781000000000000 # O3
  0.8294999999999996    0.5718000000000002    0.0490999999999998 # O4
  0.5932000000000002    0.6377000000000000    0.4785000000000005 # O5
  0.7500000000000000    0.7500000000000001    0.0781000000000000 # O6
  0.6704999999999998    0.9282000000000001    0.0490999999999998 # O7
  0.9067999999999999    0.8622999999999998    0.4785000000000005 # O8
  0.1705000000000003    0.4282000000000002    0.0490999999999998 # O9
  0.4067999999999997    0.3622999999999999    0.4785000000000005 # O10
  0.6704999999999998    0.0717999999999998    0.5490999999999997 # O11
  0.9067999999999999    0.1377000000000001    0.9784999999999995 # O12
  0.7500000000000000    0.2500000000000002    0.5780999999999999 # O13
  0.1705000000000003    0.5718000000000002    0.5490999999999997 # O14
  0.4067999999999997    0.6377000000000000    0.9784999999999995 # O15
  0.2499999999999997    0.7500000000000001    0.5780999999999999 # O16
  0.3295000000000001    0.9282000000000001    0.5490999999999997 # O17
  0.0931999999999998    0.8622999999999998    0.9784999999999995 # O18
  0.8294999999999996    0.4282000000000002    0.5490999999999997 # O19
  0.5932000000000002    0.3623000000000002    0.9784999999999995 # O20
  0.3459999999999998    0.0584000000000000    0.6249999999999999 # Li1
  0.8460000000000001    0.5584000000000000    0.6249999999999999 # Li2
  0.6540000000000001    0.9416000000000000    0.6249999999999999 # Li3
  0.1539999999999997    0.4415999999999999    0.6249999999999999 # Li4
  0.6540000000000001    0.0584000000000000    0.1250000000000000 # Li5
  0.1539999999999997    0.5584000000000000    0.1250000000000000 # Li6
  0.3459999999999998    0.9416000000000000    0.1250000000000000 # Li7
  0.8460000000000001    0.4415999999999999    0.1250000000000000 # Li8
