$cell vectors
1.0
 15.9659924873300838    0.0000000000000000    0.0000000000000000
  0.0000000000000000    7.5009964704661733    0.0000000000000000
  0.0000000000000000    0.0000000000000000    4.8579977141080768
 24 20
Direct
  0.1427000000000000    0.1133000000000003    0.0000000000000000 # V1
  0.4356000000000002    0.2458000000000003    0.0000000000000000 # V2
  0.3104000000000001    0.0000000000000000    0.2499999999999997 # V3
  0.6427000000000002    0.6133000000000004    0.4999999999999993 # V4
  0.8103999999999998    0.5000000000000000    0.7500000000000001 # V5
  0.8573000000000000    0.8867000000000005    0.0000000000000000 # V6
  0.5643999999999998    0.7542000000000005    0.0000000000000000 # V7
  0.6896000000000000    0.0000000000000000    0.7500000000000001 # V8
  0.3572999999999998    0.3867000000000004    0.4999999999999993 # V9
  0.0644000000000000    0.2541999999999998    0.4999999999999993 # V10
  0.1896000000000001    0.5000000000000000    0.2499999999999997 # V11
  0.1896000000000001    0.5000000000000000    0.7500000000000001 # V12
  0.3104000000000001    0.0000000000000000    0.7500000000000001 # V13
  0.9356000000000000    0.7458000000000002    0.4999999999999993 # V14
  0.8103999999999998    0.5000000000000000    0.2499999999999997 # V15
  0.1427000000000000    0.8867000000000005    0.4999999999999993 # V16
  0.4356000000000002    0.7542000000000005    0.4999999999999993 # V17
  0.6427000000000002    0.3866999999999997    0.0000000000000000 # V18
  0.9356000000000000    0.2541999999999998    0.0000000000000000 # V19
  0.8573000000000000    0.1133000000000003    0.4999999999999993 # V20
  0.5643999999999998    0.2458000000000003    0.4999999999999993 # V21
  0.6896000000000000    0.0000000000000000    0.2499999999999997 # V22
  0.3572999999999998    0.6133000000000004    0.0000000000000000 # V23
  0.0644000000000000    0.7458000000000002    0.0000000000000000 # V24
  0.2867999999999999    0.2985000000000004    0.0000000000000000 # Si1
  0.0641000000000002    0.4106000000000005    0.0000000000000000 # Si2
  0.0000000000000000    0.0000000000000000    0.2499999999999997 # Si3
  0.4999999999999998    0.5000000000000000    0.7500000000000001 # Si4
  0.7131999999999999    0.7015000000000003    0.0000000000000000 # Si5
  0.9358999999999998    0.5894000000000004    0.0000000000000000 # Si6
  0.0000000000000000    0.0000000000000000    0.7500000000000001 # Si7
  0.2131999999999999    0.2015000000000003    0.4999999999999993 # Si8
  0.4359000000000000    0.0894000000000002    0.4999999999999993 # Si9
  0.7867999999999997    0.7985000000000004    0.4999999999999993 # Si10
  0.5640999999999999    0.9106000000000005    0.4999999999999993 # Si11
  0.2867999999999999    0.7015000000000003    0.4999999999999993 # Si12
  0.0641000000000002    0.5894000000000004    0.4999999999999993 # Si13
  0.7867999999999997    0.2015000000000003    0.0000000000000000 # Si14
  0.5640999999999999    0.0894000000000002    0.0000000000000000 # Si15
  0.4999999999999998    0.5000000000000000    0.2499999999999997 # Si16
  0.7131999999999999    0.2985000000000004    0.4999999999999993 # Si17
  0.9358999999999998    0.4106000000000005    0.4999999999999993 # Si18
  0.2131999999999999    0.7985000000000004    0.0000000000000000 # Si19
  0.4359000000000000    0.9106000000000005    0.0000000000000000 # Si20
