$cell vectors
1.0
 35.2929833931692798    0.0000000000000000    0.0000000000000000
  0.0000000000000000   17.9429915570690071    0.0000000000000000
  0.0000000000000000    0.0000000000000000    7.7459963551834408
 80 48 240
Direct
  0.1248999999999999    0.4996999999999999    0.2500000000000004 # Nb1
  0.1252000000000000    0.0000000000000000    0.2500000000000004 # Nb2
  0.0352999999999999    0.6099999999999998    0.2500000000000004 # Nb3
  0.2149000000000000    0.6106000000000000    0.2500000000000004 # Nb4
  0.0338000000000000    0.3939999999999999    0.2500000000000004 # Nb5
  0.2159999999999999    0.3948999999999999    0.2500000000000004 # Nb6
  0.0716000000000000    0.1792000000000001    0.2500000000000004 # Nb7
  0.1778000000000000    0.1865000000000000    0.2500000000000004 # Nb8
  0.0698000000000000    0.8218999999999999    0.2500000000000004 # Nb9
  0.1804000000000000    0.8211999999999998    0.2500000000000004 # Nb10
  0.6249000000000000    0.4996999999999999    0.7499999999999998 # Nb11
  0.6251999999999998    0.0000000000000000    0.7499999999999998 # Nb12
  0.5352999999999998    0.6099999999999998    0.7499999999999998 # Nb13
  0.7148999999999999    0.6106000000000000    0.7499999999999998 # Nb14
  0.5337999999999999    0.3939999999999999    0.7499999999999998 # Nb15
  0.7159999999999999    0.3948999999999999    0.7499999999999998 # Nb16
  0.5715999999999999    0.1792000000000001    0.7499999999999998 # Nb17
  0.6777999999999998    0.1865000000000000    0.7499999999999998 # Nb18
  0.5698000000000001    0.8218999999999999    0.7499999999999998 # Nb19
  0.6804000000000001    0.8211999999999998    0.7499999999999998 # Nb20
  0.8750999999999997    0.9996999999999999    0.7499999999999998 # Nb21
  0.8747999999999999    0.4999999999999998    0.7499999999999998 # Nb22
  0.9646999999999999    0.1100000000000000    0.7499999999999998 # Nb23
  0.7850999999999998    0.1106000000000002    0.7499999999999998 # Nb24
  0.9661999999999997    0.8939999999999998    0.7499999999999998 # Nb25
  0.7839999999999998    0.8948999999999997    0.7499999999999998 # Nb26
  0.9283999999999996    0.6791999999999999    0.7499999999999998 # Nb27
  0.8221999999999999    0.6864999999999998    0.7499999999999998 # Nb28
  0.9302000000000000    0.3218999999999998    0.7499999999999998 # Nb29
  0.8196000000000000    0.3212000000000000    0.7499999999999998 # Nb30
  0.3750999999999999    0.9996999999999998    0.2500000000000004 # Nb31
  0.3748000000000000    0.4999999999999998    0.2500000000000004 # Nb32
  0.4646999999999999    0.1100000000000000    0.2500000000000004 # Nb33
  0.2850999999999999    0.1105999999999999    0.2500000000000004 # Nb34
  0.4661999999999999    0.8939999999999998    0.2500000000000004 # Nb35
  0.2840000000000000    0.8948999999999997    0.2500000000000004 # Nb36
  0.4283999999999999    0.6791999999999999    0.2500000000000004 # Nb37
  0.3222000000000000    0.6864999999999998    0.2500000000000004 # Nb38
  0.4302000000000000    0.3218999999999998    0.2500000000000004 # Nb39
  0.3195999999999998    0.3212000000000000    0.2500000000000004 # Nb40
  0.1248999999999999    0.4996999999999999    0.7499999999999998 # Nb41
  0.1252000000000000    0.0000000000000000    0.7499999999999998 # Nb42
  0.0352999999999999    0.6099999999999998    0.7499999999999998 # Nb43
  0.2149000000000000    0.6106000000000000    0.7499999999999998 # Nb44
  0.0338000000000000    0.3939999999999999    0.7499999999999998 # Nb45
  0.2159999999999999    0.3948999999999999    0.7499999999999998 # Nb46
  0.0716000000000000    0.1792000000000001    0.7499999999999998 # Nb47
  0.1778000000000000    0.1865000000000000    0.7499999999999998 # Nb48
  0.0698000000000000    0.8218999999999999    0.7499999999999998 # Nb49
  0.1804000000000000    0.8211999999999998    0.7499999999999998 # Nb50
  0.6249000000000000    0.4996999999999999    0.2500000000000004 # Nb51
  0.6251999999999998    0.0000000000000000    0.2500000000000004 # Nb52
  0.5352999999999998    0.6099999999999998    0.2500000000000004 # Nb53
  0.7148999999999999    0.6106000000000000    0.2500000000000004 # Nb54
  0.5337999999999999    0.3939999999999999    0.2500000000000004 # Nb55
  0.7159999999999999    0.3948999999999999    0.2500000000000004 # Nb56
  0.5715999999999999    0.1792000000000001    0.2500000000000004 # Nb57
  0.6777999999999998    0.1865000000000000    0.2500000000000004 # Nb58
  0.5698000000000001    0.8218999999999999    0.2500000000000004 # Nb59
  0.6804000000000001    0.8211999999999998    0.2500000000000004 # Nb60
  0.8750999999999997    0.9996999999999999    0.2500000000000004 # Nb61
  0.8747999999999999    0.4999999999999998    0.2500000000000004 # Nb62
  0.9646999999999999    0.1100000000000000    0.2500000000000004 # Nb63
  0.7850999999999998    0.1106000000000002    0.2500000000000004 # Nb64
  0.9661999999999997    0.8939999999999998    0.2500000000000004 # Nb65
  0.7839999999999998    0.8948999999999997    0.2500000000000004 # Nb66
  0.9283999999999996    0.6791999999999999    0.2500000000000004 # Nb67
  0.8221999999999999    0.6864999999999998    0.2500000000000004 # Nb68
  0.9301999999999996    0.3218999999999998    0.2500000000000004 # Nb69
  0.8196000000000000    0.3212000000000000    0.2500000000000004 # Nb70
  0.3750999999999999    0.9996999999999998    0.7499999999999998 # Nb71
  0.3748000000000000    0.4999999999999998    0.7499999999999998 # Nb72
  0.4646999999999999    0.1100000000000000    0.7499999999999998 # Nb73
  0.2850999999999999    0.1105999999999999    0.7499999999999998 # Nb74
  0.4661999999999999    0.8939999999999998    0.7499999999999998 # Nb75
  0.2840000000000000    0.8948999999999997    0.7499999999999998 # Nb76
  0.4283999999999999    0.6791999999999999    0.7499999999999998 # Nb77
  0.3222000000000000    0.6864999999999998    0.7499999999999998 # Nb78
  0.4302000000000000    0.3218999999999998    0.7499999999999998 # Nb79
  0.3195999999999998    0.3212000000000000    0.7499999999999998 # Nb80
  0.0384999999999999    0.0234999999999999    0.0000000000000000 # Pb1
  0.0395000000000000    0.0297000000000001    0.5000000000000000 # Pb2
  0.2095000000000000    0.0335000000000000    0.0000000000000000 # Pb3
  0.2127999999999999    0.0181999999999999    0.5000000000000000 # Pb4
  0.1274000000000000    0.6998999999999999    0.0000000000000000 # Pb5
  0.1303000000000000    0.6901999999999997    0.5000000000000000 # Pb6
  0.1300999999999999    0.3448999999999998    0.5000000000000000 # Pb7
  0.1173000000000000    0.3437999999999998    0.0000000000000000 # Pb8
  0.0017000000000000    0.2482000000000000    0.0000000000000000 # Pb9
  0.2476999999999999    0.2486000000000002    0.0000000000000000 # Pb10
  0.0010000000000001    0.2496999999999998    0.5000000000000000 # Pb11
  0.2481000000000000    0.2489000000000000    0.5000000000000000 # Pb12
  0.5384999999999996    0.0234999999999999    0.5000000000000000 # Pb13
  0.5394999999999998    0.0297000000000001    0.0000000000000000 # Pb14
  0.7094999999999998    0.0335000000000000    0.5000000000000000 # Pb15
  0.7127999999999998    0.0181999999999999    0.0000000000000000 # Pb16
  0.6273999999999998    0.6998999999999999    0.5000000000000000 # Pb17
  0.6303000000000000    0.6901999999999997    0.0000000000000000 # Pb18
  0.6301000000000000    0.3448999999999998    0.0000000000000000 # Pb19
  0.6172999999999997    0.3437999999999998    0.5000000000000000 # Pb20
  0.5016999999999998    0.2482000000000000    0.5000000000000000 # Pb21
  0.7476999999999999    0.2486000000000002    0.5000000000000000 # Pb22
  0.5009999999999999    0.2496999999999998    0.0000000000000000 # Pb23
  0.7480999999999998    0.2489000000000000    0.0000000000000000 # Pb24
  0.9614999999999999    0.5234999999999997    0.0000000000000000 # Pb25
  0.9604999999999998    0.5296999999999998    0.5000000000000000 # Pb26
  0.7904999999999999    0.5334999999999999    0.0000000000000000 # Pb27
  0.7871999999999997    0.5181999999999997    0.5000000000000000 # Pb28
  0.8725999999999999    0.1999000000000000    0.0000000000000000 # Pb29
  0.8696999999999997    0.1901999999999999    0.5000000000000000 # Pb30
  0.8698999999999997    0.8448999999999999    0.5000000000000000 # Pb31
  0.8826999999999998    0.8437999999999999    0.0000000000000000 # Pb32
  0.9982999999999997    0.7481999999999999    0.0000000000000000 # Pb33
  0.7522999999999999    0.7485999999999999    0.0000000000000000 # Pb34
  0.9989999999999996    0.7496999999999999    0.5000000000000000 # Pb35
  0.7518999999999997    0.7488999999999999    0.5000000000000000 # Pb36
  0.4614999999999999    0.5234999999999997    0.5000000000000000 # Pb37
  0.4605000000000001    0.5296999999999998    0.0000000000000000 # Pb38
  0.2904999999999999    0.5334999999999999    0.5000000000000000 # Pb39
  0.2872000000000000    0.5181999999999997    0.0000000000000000 # Pb40
  0.3725999999999999    0.1999000000000000    0.5000000000000000 # Pb41
  0.3696999999999999    0.1901999999999999    0.0000000000000000 # Pb42
  0.3699000000000000    0.8448999999999999    0.0000000000000000 # Pb43
  0.3826999999999999    0.8437999999999999    0.5000000000000000 # Pb44
  0.4983000000000000    0.7481999999999999    0.5000000000000000 # Pb45
  0.2523000000000000    0.7485999999999999    0.5000000000000000 # Pb46
  0.4990000000000000    0.7496999999999999    0.0000000000000000 # Pb47
  0.2519000000000000    0.7488999999999999    0.0000000000000000 # Pb48
  0.1128000000000000    0.4837000000000000    0.0000000000000000 # O1
  0.3672000000000000    0.9909999999999998    0.0000000000000000 # O2
  0.1421000000000000    0.9929999999999999    0.0000000000000000 # O3
  0.3870000000000000    0.4944999999999999    0.0000000000000000 # O4
  0.4606999999999999    0.1001000000000003    0.5000000000000000 # O5
  0.4751000000000000    0.1039000000000002    0.0000000000000000 # O6
  0.2761999999999999    0.0964000000000001    0.5000000000000000 # O7
  0.2911999999999999    0.1121000000000000    0.0000000000000000 # O8
  0.0409999999999999    0.3836999999999999    0.0000000000000000 # O9
  0.0288000000000000    0.4061999999999998    0.5000000000000000 # O10
  0.2264000000000000    0.3850999999999998    0.0000000000000000 # O11
  0.2038000000000000    0.3733999999999998    0.5000000000000000 # O12
  0.0735999999999999    0.2063999999999999    0.0000000000000000 # O13
  0.0660000000000000    0.1514999999999999    0.5000000000000000 # O14
  0.1749000000000000    0.1676999999999999    0.0000000000000000 # O15
  0.1854000000000000    0.1777000000000001    0.5000000000000000 # O16
  0.4275999999999998    0.2978000000000000    0.5000000000000000 # O17
  0.4268999999999999    0.3121999999999999    0.0000000000000000 # O18
  0.3304000000000000    0.3134999999999998    0.5000000000000000 # O19
  0.3192999999999999    0.2863000000000001    0.0000000000000000 # O20
  0.4113000000000000    0.0708000000000000    0.2174000000000000 # O21
  0.3388999999999999    0.0752999999999999    0.2706999999999997 # O22
  0.4462999999999999    0.2128000000000002    0.2089000000000003 # O23
  0.3042000000000000    0.2129000000000000    0.2740000000000000 # O24
  0.0139000000000000    0.4962999999999999    0.2192999999999999 # O25
  0.2346999999999999    0.4910999999999998    0.2690000000000001 # O26
  0.0171999999999999    0.1298999999999999    0.2335999999999997 # O27
  0.2318000000000000    0.1403000000000000    0.2055000000000003 # O28
  0.0855999999999999    0.0702000000000000    0.2312000000000002 # O29
  0.1619000000000000    0.0726000000000000    0.2848000000000000 # O30
  0.1268000000000000    0.2127000000000001    0.2805000000000000 # O31
  0.3769999999999999    0.2741999999999999    0.2426000000000003 # O32
  0.4109999999999999    0.4186999999999999    0.2838999999999999 # O33
  0.3400999999999999    0.4255000000000000    0.2050000000000001 # O34
  0.4835999999999997    0.3491999999999998    0.2739000000000002 # O35
  0.2702999999999999    0.3430000000000000    0.2745000000000002 # O36
  0.0509000000000000    0.2694999999999999    0.2978999999999998 # O37
  0.2000000000000000    0.2816000000000000    0.2504000000000002 # O38
  0.0851000000000000    0.4047999999999999    0.2808000000000000 # O39
  0.1612000000000000    0.4112999999999999    0.2207000000000002 # O40
  0.6127999999999998    0.4836999999999997    0.5000000000000000 # O41
  0.8671999999999997    0.9909999999999998    0.5000000000000000 # O42
  0.6421000000000000    0.9929999999999999    0.5000000000000000 # O43
  0.8869999999999998    0.4944999999999999    0.5000000000000000 # O44
  0.9606999999999998    0.1001000000000003    0.0000000000000000 # O45
  0.9751000000000001    0.1039000000000002    0.5000000000000000 # O46
  0.7761999999999997    0.0964000000000001    0.0000000000000000 # O47
  0.7911999999999998    0.1121000000000000    0.5000000000000000 # O48
  0.5409999999999999    0.3836999999999999    0.5000000000000000 # O49
  0.5287999999999998    0.4061999999999998    0.0000000000000000 # O50
  0.7263999999999998    0.3850999999999998    0.5000000000000000 # O51
  0.7037999999999999    0.3733999999999998    0.0000000000000000 # O52
  0.5735999999999999    0.2064000000000002    0.5000000000000000 # O53
  0.5660000000000001    0.1515000000000002    0.0000000000000000 # O54
  0.6748999999999999    0.1676999999999999    0.5000000000000000 # O55
  0.6853999999999998    0.1777000000000001    0.0000000000000000 # O56
  0.9275999999999999    0.2978000000000000    0.0000000000000000 # O57
  0.9268999999999998    0.3121999999999999    0.5000000000000000 # O58
  0.8303999999999999    0.3134999999999998    0.0000000000000000 # O59
  0.8192999999999998    0.2863000000000001    0.5000000000000000 # O60
  0.9112999999999998    0.0708000000000003    0.7174000000000000 # O61
  0.8388999999999999    0.0753000000000002    0.7706999999999997 # O62
  0.9462999999999999    0.2128000000000002    0.7089000000000004 # O63
  0.8041999999999999    0.2129000000000000    0.7739999999999999 # O64
  0.5139000000000000    0.4962999999999999    0.7193000000000001 # O65
  0.7346999999999998    0.4910999999999998    0.7690000000000001 # O66
  0.5171999999999999    0.1299000000000002    0.7336000000000006 # O67
  0.7317999999999997    0.1403000000000000    0.7055000000000003 # O68
  0.5856000000000000    0.0702000000000000    0.7312000000000003 # O69
  0.6618999999999997    0.0726000000000000    0.7848000000000001 # O70
  0.6268000000000001    0.2127000000000001    0.7805000000000001 # O71
  0.8769999999999999    0.2741999999999999    0.7426000000000004 # O72
  0.9110000000000000    0.4186999999999999    0.7838999999999999 # O73
  0.8401000000000002    0.4255000000000000    0.7050000000000003 # O74
  0.9835999999999997    0.3491999999999998    0.7739000000000003 # O75
  0.7703000000000000    0.3430000000000000    0.7745000000000003 # O76
  0.5508999999999998    0.2694999999999999    0.7979000000000006 # O77
  0.6999999999999998    0.2816000000000000    0.7504000000000003 # O78
  0.5850999999999998    0.4047999999999999    0.7808000000000000 # O79
  0.6611999999999998    0.4112999999999999    0.7207000000000002 # O80
  0.8871999999999998    0.9836999999999999    0.0000000000000000 # O81
  0.6328000000000000    0.4909999999999997    0.0000000000000000 # O82
  0.8578999999999999    0.4929999999999998    0.0000000000000000 # O83
  0.6129999999999998    0.9944999999999998    0.0000000000000000 # O84
  0.5392999999999999    0.6000999999999997    0.5000000000000000 # O85
  0.5248999999999999    0.6039000000000000    0.0000000000000000 # O86
  0.7237999999999999    0.5963999999999999    0.5000000000000000 # O87
  0.7088000000000000    0.6120999999999999    0.0000000000000000 # O88
  0.9590000000000000    0.8836999999999997    0.0000000000000000 # O89
  0.9711999999999998    0.9061999999999999    0.5000000000000000 # O90
  0.7736000000000000    0.8851000000000000    0.0000000000000000 # O91
  0.7961999999999998    0.8734000000000000    0.5000000000000000 # O92
  0.9263999999999999    0.7063999999999999    0.0000000000000000 # O93
  0.9339999999999998    0.6514999999999997    0.5000000000000000 # O94
  0.8250999999999998    0.6676999999999997    0.0000000000000000 # O95
  0.8145999999999999    0.6776999999999999    0.5000000000000000 # O96
  0.5723999999999999    0.7977999999999997    0.5000000000000000 # O97
  0.5731000000000001    0.8121999999999997    0.0000000000000000 # O98
  0.6695999999999999    0.8134999999999999    0.5000000000000000 # O99
  0.6807000000000001    0.7862999999999998    0.0000000000000000 # O100
  0.5886999999999998    0.5707999999999998    0.7826000000000003 # O101
  0.6611000000000000    0.5753000000000001    0.7293000000000004 # O102
  0.5537000000000000    0.7127999999999998    0.7911000000000004 # O103
  0.6958000000000000    0.7128999999999999    0.7260000000000002 # O104
  0.9860999999999998    0.9962999999999995    0.7807000000000003 # O105
  0.7652999999999998    0.9910999999999996    0.7310000000000000 # O106
  0.9827999999999998    0.6298999999999999    0.7664000000000004 # O107
  0.7681999999999999    0.6402999999999998    0.7944999999999999 # O108
  0.9144000000000000    0.5701999999999998    0.7688000000000000 # O109
  0.8380999999999998    0.5725999999999998    0.7152000000000001 # O110
  0.8731999999999996    0.7126999999999999    0.7195000000000003 # O111
  0.6229999999999999    0.7741999999999998    0.7573999999999997 # O112
  0.5890000000000001    0.9186999999999997    0.7161000000000001 # O113
  0.6599000000000000    0.9254999999999999    0.7950000000000002 # O114
  0.5163999999999997    0.8491999999999997    0.7261000000000001 # O115
  0.7296999999999998    0.8429999999999999    0.7254999999999999 # O116
  0.9491000000000001    0.7695000000000000    0.7021000000000004 # O117
  0.7999999999999997    0.7815999999999997    0.7495999999999999 # O118
  0.9148999999999998    0.9047999999999998    0.7192000000000002 # O119
  0.8387999999999998    0.9112999999999998    0.7793000000000000 # O120
  0.3871999999999999    0.9836999999999998    0.5000000000000000 # O121
  0.1328000000000000    0.4910000000000000    0.5000000000000000 # O122
  0.3578999999999999    0.4929999999999998    0.5000000000000000 # O123
  0.1130000000000000    0.9944999999999998    0.5000000000000000 # O124
  0.0393000000000000    0.6000999999999997    0.0000000000000000 # O125
  0.0249000000000000    0.6039000000000000    0.5000000000000000 # O126
  0.2238000000000000    0.5963999999999999    0.0000000000000000 # O127
  0.2088000000000000    0.6120999999999999    0.5000000000000000 # O128
  0.4590000000000000    0.8836999999999997    0.5000000000000000 # O129
  0.4712000000000000    0.9061999999999999    0.0000000000000000 # O130
  0.2736000000000001    0.8851000000000000    0.5000000000000000 # O131
  0.2962000000000001    0.8734000000000000    0.0000000000000000 # O132
  0.4263999999999999    0.7063999999999999    0.5000000000000000 # O133
  0.4339999999999999    0.6514999999999997    0.0000000000000000 # O134
  0.3250999999999999    0.6676999999999997    0.5000000000000000 # O135
  0.3145999999999999    0.6776999999999999    0.0000000000000000 # O136
  0.0724000000000001    0.7977999999999997    0.0000000000000000 # O137
  0.0731000000000001    0.8121999999999997    0.5000000000000000 # O138
  0.1695999999999999    0.8134999999999999    0.0000000000000000 # O139
  0.1806999999999999    0.7862999999999998    0.5000000000000000 # O140
  0.0886999999999999    0.5707999999999998    0.2826000000000001 # O141
  0.1611000000000000    0.5753000000000001    0.2293000000000003 # O142
  0.0537000000000001    0.7127999999999998    0.2910999999999998 # O143
  0.1957999999999999    0.7128999999999999    0.2260000000000001 # O144
  0.4860999999999998    0.9962999999999995    0.2807000000000002 # O145
  0.2653000000000000    0.9910999999999996    0.2310000000000000 # O146
  0.4828000000000001    0.6298999999999999    0.2664000000000004 # O147
  0.2682000000000000    0.6402999999999998    0.2944999999999998 # O148
  0.4144000000000000    0.5701999999999998    0.2687999999999998 # O149
  0.3381000000000000    0.5725999999999998    0.2152000000000001 # O150
  0.3731999999999999    0.7126999999999999    0.2195000000000001 # O151
  0.1230000000000000    0.7741999999999998    0.2573999999999997 # O152
  0.0890000000000000    0.9186999999999997    0.2161000000000001 # O153
  0.1599000000000000    0.9254999999999999    0.2950000000000001 # O154
  0.0164000000000000    0.8491999999999997    0.2260999999999999 # O155
  0.2297000000000001    0.8429999999999999    0.2254999999999998 # O156
  0.4490999999999999    0.7695000000000000    0.2021000000000003 # O157
  0.2999999999999999    0.7815999999999997    0.2495999999999999 # O158
  0.4148999999999999    0.9047999999999998    0.2192000000000001 # O159
  0.3388000000000001    0.9112999999999998    0.2792999999999999 # O160
  0.4113000000000000    0.0708000000000003    0.7826000000000003 # O161
  0.3388999999999999    0.0752999999999999    0.7293000000000004 # O162
  0.4462999999999999    0.2128000000000002    0.7911000000000004 # O163
  0.3042000000000000    0.2129000000000000    0.7260000000000002 # O164
  0.0139000000000000    0.4962999999999999    0.7807000000000003 # O165
  0.2346999999999999    0.4910999999999998    0.7310000000000000 # O166
  0.0172000000000001    0.1298999999999999    0.7664000000000004 # O167
  0.2318000000000000    0.1403000000000000    0.7944999999999999 # O168
  0.0856000000000001    0.0702000000000000    0.7688000000000000 # O169
  0.1619000000000000    0.0726000000000000    0.7152000000000001 # O170
  0.1268000000000000    0.2127000000000001    0.7195000000000003 # O171
  0.3769999999999999    0.2741999999999999    0.7573999999999997 # O172
  0.4109999999999999    0.4186999999999999    0.7161000000000001 # O173
  0.3400999999999999    0.4255000000000000    0.7950000000000002 # O174
  0.4835999999999997    0.3491999999999998    0.7261000000000001 # O175
  0.2702999999999999    0.3430000000000000    0.7254999999999999 # O176
  0.0509000000000000    0.2695000000000002    0.7021000000000004 # O177
  0.2000000000000000    0.2816000000000000    0.7495999999999999 # O178
  0.0851000000000000    0.4047999999999999    0.7192000000000002 # O179
  0.1612000000000000    0.4112999999999999    0.7793000000000000 # O180
  0.9112999999999998    0.0708000000000000    0.2826000000000001 # O181
  0.8388999999999999    0.0753000000000002    0.2293000000000003 # O182
  0.9462999999999997    0.2128000000000002    0.2910999999999998 # O183
  0.8041999999999999    0.2129000000000000    0.2260000000000001 # O184
  0.5139000000000000    0.4962999999999999    0.2807000000000002 # O185
  0.7346999999999998    0.4910999999999998    0.2310000000000000 # O186
  0.5171999999999999    0.1299000000000002    0.2664000000000004 # O187
  0.7317999999999997    0.1403000000000000    0.2944999999999998 # O188
  0.5856000000000000    0.0702000000000000    0.2687999999999998 # O189
  0.6618999999999997    0.0726000000000000    0.2152000000000001 # O190
  0.6268000000000001    0.2127000000000001    0.2195000000000001 # O191
  0.8769999999999999    0.2741999999999999    0.2573999999999997 # O192
  0.9110000000000000    0.4186999999999999    0.2161000000000001 # O193
  0.8400999999999998    0.4255000000000000    0.2950000000000001 # O194
  0.9835999999999997    0.3491999999999998    0.2260999999999999 # O195
  0.7703000000000000    0.3430000000000000    0.2254999999999998 # O196
  0.5508999999999998    0.2694999999999999    0.2021000000000003 # O197
  0.6999999999999998    0.2816000000000000    0.2495999999999999 # O198
  0.5850999999999998    0.4047999999999999    0.2192000000000001 # O199
  0.6611999999999998    0.4112999999999999    0.2792999999999999 # O200
  0.5886999999999998    0.5707999999999998    0.2174000000000000 # O201
  0.6611000000000000    0.5753000000000001    0.2706999999999997 # O202
  0.5537000000000000    0.7127999999999998    0.2089000000000003 # O203
  0.6958000000000000    0.7128999999999999    0.2740000000000000 # O204
  0.9860999999999998    0.9962999999999995    0.2192999999999999 # O205
  0.7652999999999998    0.9910999999999996    0.2690000000000001 # O206
  0.9827999999999998    0.6298999999999999    0.2335999999999997 # O207
  0.7681999999999999    0.6402999999999998    0.2055000000000003 # O208
  0.9144000000000000    0.5701999999999998    0.2312000000000002 # O209
  0.8380999999999998    0.5725999999999998    0.2848000000000000 # O210
  0.8731999999999996    0.7126999999999999    0.2805000000000000 # O211
  0.6229999999999999    0.7741999999999998    0.2426000000000003 # O212
  0.5890000000000001    0.9186999999999997    0.2838999999999999 # O213
  0.6599000000000000    0.9254999999999999    0.2050000000000001 # O214
  0.5163999999999997    0.8491999999999997    0.2739000000000002 # O215
  0.7296999999999998    0.8429999999999999    0.2745000000000002 # O216
  0.9491000000000001    0.7695000000000000    0.2978999999999998 # O217
  0.7999999999999997    0.7815999999999997    0.2504000000000002 # O218
  0.9148999999999998    0.9047999999999998    0.2808000000000000 # O219
  0.8387999999999998    0.9112999999999998    0.2207000000000002 # O220
  0.0887000000000001    0.5707999999999998    0.7174000000000000 # O221
  0.1611000000000000    0.5753000000000001    0.7706999999999997 # O222
  0.0537000000000001    0.7127999999999998    0.7089000000000004 # O223
  0.1957999999999999    0.7128999999999999    0.7739999999999999 # O224
  0.4860999999999998    0.9962999999999995    0.7193000000000001 # O225
  0.2653000000000000    0.9910999999999996    0.7690000000000001 # O226
  0.4828000000000001    0.6298999999999999    0.7336000000000006 # O227
  0.2682000000000000    0.6402999999999998    0.7055000000000003 # O228
  0.4144000000000000    0.5701999999999998    0.7312000000000003 # O229
  0.3381000000000000    0.5725999999999998    0.7848000000000001 # O230
  0.3731999999999999    0.7126999999999999    0.7805000000000001 # O231
  0.1230000000000000    0.7741999999999998    0.7426000000000004 # O232
  0.0890000000000000    0.9186999999999997    0.7838999999999999 # O233
  0.1599000000000000    0.9254999999999999    0.7050000000000003 # O234
  0.0164000000000001    0.8491999999999997    0.7739000000000003 # O235
  0.2297000000000001    0.8429999999999999    0.7745000000000003 # O236
  0.4490999999999999    0.7695000000000000    0.7979000000000006 # O237
  0.2999999999999999    0.7815999999999997    0.7504000000000003 # O238
  0.4148999999999999    0.9047999999999998    0.7808000000000000 # O239
  0.3388000000000001    0.9112999999999998    0.7207000000000002 # O240
