$cell vectors
1.0
 11.1499947534592501    0.0000000000000000    0.0000000000000000
  0.0000000000000000   11.5099945840642164    0.0000000000000000
  0.0000000000000000    0.0000000000000000    4.0099981131274962
 6 2 2 12
Direct
  0.9190000000000002    0.0329999999999999    0.0000000000000000 # Bi1
  0.4340000000000002    0.4909999999999998    0.5000000000000000 # Bi2
  0.2080000000000001    0.1619999999999999    0.5000000000000000 # Bi3
  0.0809999999999998    0.5330000000000001    0.0000000000000000 # Bi4
  0.5660000000000002    0.9909999999999999    0.5000000000000000 # Bi5
  0.7920000000000004    0.6620000000000000    0.5000000000000000 # Bi6
  0.7480000000000003    0.3360000000000002    0.0000000000000000 # Pb1
  0.2520000000000002    0.8360000000000000    0.0000000000000000 # Pb2
  0.4440000000000002    0.2490000000000000    0.0000000000000000 # Cu1
  0.5560000000000002    0.7489999999999998    0.0000000000000000 # Cu2
  0.8740000000000002    0.4510000000000001    0.5000000000000000 # S1
  0.3560000000000001    0.0589999999999999    0.0000000000000000 # S2
  0.8560000000000000    0.1080000000000001    0.5000000000000000 # S3
  0.2960000000000001    0.3939999999999998    0.0000000000000000 # S4
  0.0340000000000000    0.2269999999999998    0.0000000000000000 # S5
  0.5640000000000002    0.2990000000000000    0.5000000000000000 # S6
  0.1260000000000000    0.9510000000000000    0.5000000000000000 # S7
  0.6440000000000002    0.5589999999999996    0.0000000000000000 # S8
  0.1440000000000000    0.6079999999999998    0.5000000000000000 # S9
  0.7040000000000003    0.8940000000000002    0.0000000000000000 # S10
  0.9659999999999999    0.7270000000000001    0.0000000000000000 # S11
  0.4360000000000001    0.7989999999999998    0.5000000000000000 # S12
