$cell vectors
1.0
  4.7149977813955477    0.0000000000000000    0.0000000000000000
  0.0000000000000000   15.7069926092004017    0.0000000000000000
  0.0000000000000000    0.0000000000000000    2.8749986471924052
 4 6 12
Direct
  0.0000000000000000    0.1514000000000001    0.5000000000000000 # W1
  0.5000000000000000    0.6514000000000001    0.0000000000000000 # W2
  0.0000000000000000    0.8486000000000002    0.5000000000000000 # W3
  0.5000000000000000    0.3486000000000000    0.0000000000000000 # W4
  0.0000000000000000    0.0000000000000000    0.0000000000000000 # Ir1
  0.0000000000000000    0.4055000000000000    0.5000000000000000 # Ir2
  0.5000000000000000    0.5000000000000002    0.5000000000000000 # Ir3
  0.5000000000000000    0.9055000000000001    0.0000000000000000 # Ir4
  0.0000000000000000    0.5945000000000000    0.5000000000000000 # Ir5
  0.5000000000000000    0.0944999999999998    0.0000000000000000 # Ir6
  0.2877999999999999    0.2199999999999999    0.0000000000000000 # B1
  0.1509999999999997    0.5000000000000002    0.0000000000000000 # B2
  0.7878000000000009    0.7200000000000001    0.5000000000000000 # B3
  0.6510000000000008    0.0000000000000000    0.5000000000000000 # B4
  0.7122000000000001    0.7800000000000001    0.0000000000000000 # B5
  0.8490000000000003    0.5000000000000002    0.0000000000000000 # B6
  0.2122000000000000    0.2800000000000000    0.5000000000000000 # B7
  0.3490000000000003    0.0000000000000000    0.5000000000000000 # B8
  0.2877999999999999    0.7800000000000001    0.0000000000000000 # B9
  0.7877999999999998    0.2800000000000000    0.5000000000000000 # B10
  0.7122000000000001    0.2199999999999999    0.0000000000000000 # B11
  0.2122000000000000    0.7200000000000001    0.5000000000000000 # B12
