$cell vectors
1.0
  6.4719969546536564    0.0000000000000000    0.0000000000000000
  0.0000000000000000   10.7239949539100490    0.0000000000000000
  0.0000000000000000    0.0000000000000000    5.2589975254208268
 8 4 16 8
Direct
  0.0000000000000000    0.1932000000000001    0.1392000000000001 # Na1
  0.0642999999999997    0.0012000000000003    0.6220000000000000 # Na2
  0.5000000000000004    0.8067999999999999    0.8607999999999999 # Na3
  0.5643000000000002    0.9987999999999998    0.3780000000000001 # Na4
  0.0000000000000000    0.6931999999999997    0.8607999999999999 # Na5
  0.0642999999999997    0.5011999999999998    0.3780000000000001 # Na6
  0.5000000000000004    0.3067999999999999    0.1392000000000001 # Na7
  0.5643000000000002    0.4987999999999998    0.6220000000000000 # Na8
  0.7859999999999998    0.2546000000000001    0.6023999999999996 # C1
  0.2860000000000002    0.7454000000000001    0.3976000000000003 # C2
  0.7860000000000006    0.7545999999999997    0.3976000000000003 # C3
  0.2860000000000002    0.2454000000000000    0.6023999999999996 # C4
  0.7990000000000000    0.1389000000000000    0.5465999999999996 # O1
  0.7970000000000006    0.3366000000000001    0.4266000000000004 # O2
  0.7609999999999997    0.2883000000000003    0.8350000000000002 # O3
  0.0322000000000003    0.9709999999999998    0.0692000000000000 # O4
  0.2990000000000005    0.8610999999999995    0.4534000000000004 # O5
  0.2970000000000002    0.6634000000000001    0.5733999999999997 # O6
  0.2610000000000002    0.7116999999999999    0.1649999999999998 # O7
  0.5322000000000000    0.0290000000000000    0.9307999999999998 # O8
  0.7990000000000000    0.6389000000000000    0.4534000000000004 # O9
  0.7970000000000006    0.8366000000000000    0.5733999999999997 # O10
  0.7610000000000006    0.7882999999999998    0.1649999999999998 # O11
  0.0322000000000003    0.4710000000000000    0.9307999999999998 # O12
  0.2990000000000005    0.3611000000000001    0.5465999999999996 # O13
  0.2970000000000002    0.1634000000000000    0.4266000000000004 # O14
  0.2610000000000002    0.2116999999999998    0.8350000000000002 # O15
  0.5322000000000000    0.5290000000000000    0.0692000000000000 # O16
  0.1464000000000000    0.9339999999999998    0.1611000000000000 # H1
 -0.0799999999999997    0.9109999999999998    0.1000000000000004 # H2
  0.6464000000000003    0.0660000000000003    0.8389000000000001 # H3
  0.4199999999999999    0.0889999999999998    0.8999999999999996 # H4
  0.1464000000000000    0.4339999999999998    0.8389000000000001 # H5
 -0.0799999999999997    0.4110000000000003    0.8999999999999996 # H6
  0.6464000000000003    0.5659999999999997    0.1611000000000000 # H7
  0.4199999999999999    0.5889999999999999    0.1000000000000004 # H8
