$cell vectors
1.0
 11.0619947948669299    0.0000000000000000    0.0000000000000000
  0.0000000000000000   11.1749947416957092    0.0000000000000000
  0.0000000000000000    0.0000000000000000    9.0409957458318519
 32 4 20 48
Direct
  0.9849999999999999    0.2579999999999999    0.7709999999999998 # H1
  0.9819999999999999    0.1500000000000000    0.6639999999999998 # H2
  0.1670000000000001    0.1880000000000000    0.7119999999999999 # H3
  0.2429999999999999    0.3179999999999999    1.1269999999999996 # H4
  0.9849999999999999    0.7580000000000002    0.2709999999999996 # H5
  0.9819999999999999    0.6500000000000002    0.1640000000000002 # H6
  0.1670000000000001    0.6879999999999998    0.2119999999999997 # H7
  0.2429999999999999   -0.1819999999999998    0.6269999999999996 # H8
  0.0150000000000000    0.7420000000000003    0.7709999999999998 # H9
  0.0180000000000000    0.8500000000000001    0.6639999999999998 # H10
  0.8329999999999999   -0.1880000000000000    0.7119999999999999 # H11
 -0.2429999999999999    0.6820000000000002    1.1269999999999996 # H12
  0.0150000000000000    0.2419999999999999    0.2709999999999996 # H13
  0.0180000000000000    0.3499999999999998    0.1640000000000002 # H14
  0.8329999999999999    0.3119999999999998    0.2120000000000002 # H15
 -0.2429999999999999    0.1820000000000003    0.6269999999999996 # H16
  0.5150000000000001    0.2579999999999999    0.2709999999999996 # H17
  0.5180000000000001    0.1500000000000000    0.1640000000000002 # H18
  0.3330000000000001    0.1880000000000000    0.2119999999999997 # H19
  0.2569999999999998    0.3179999999999999    0.6270000000000001 # H20
  0.5150000000000001    0.7580000000000002    0.7709999999999998 # H21
  0.5180000000000001    0.6500000000000002    0.6639999999999998 # H22
  0.3330000000000001    0.6880000000000002    0.7119999999999999 # H23
  0.2569999999999998   -0.1819999999999998    1.1269999999999996 # H24
  0.4849999999999997    0.7420000000000003    0.2709999999999996 # H25
  0.4820000000000002    0.8500000000000001    0.1640000000000002 # H26
 -0.3330000000000001   -0.1880000000000000    0.2119999999999997 # H27
  0.7430000000000001    0.6820000000000002    0.6270000000000001 # H28
  0.4849999999999997    0.2419999999999999    0.7709999999999998 # H29
  0.4819999999999998    0.3500000000000003    0.6639999999999998 # H30
 -0.3330000000000001    0.3120000000000002    0.7119999999999999 # H31
  0.7430000000000001    0.1820000000000003    1.1269999999999996 # H32
  0.0000000000000000    0.0000000000000000    0.0000000000000000 # K1
  0.0000000000000000    0.5000000000000002    0.4999999999999996 # K2
  0.4999999999999997    0.0000000000000000    0.4999999999999996 # K3
  0.4999999999999997    0.4999999999999998    0.0000000000000000 # K4
  0.0000000000000000    0.0000000000000000    0.3969999999999996 # B1
  0.1878000000000001    0.0921000000000001    0.2970000000000000 # B2
  0.2031000000000002   -0.0574999999999998    0.4779999999999999 # B3
  0.0000000000000000    0.5000000000000002    0.8969999999999998 # B4
  0.1878000000000001    0.5921000000000000    0.7969999999999995 # B5
  0.2031000000000002    0.4425000000000000    0.9779999999999995 # B6
 -0.1878000000000001   -0.0921000000000001    0.2970000000000000 # B7
 -0.2031000000000002    0.0575000000000003    0.4779999999999999 # B8
 -0.1877999999999996    0.4079000000000002    0.7969999999999995 # B9
 -0.2031000000000002    0.5575000000000001    0.9779999999999995 # B10
  0.5000000000000001    0.0000000000000000    0.8969999999999998 # B11
  0.3122000000000001    0.0921000000000001    0.7969999999999995 # B12
  0.2969000000000000   -0.0574999999999998    0.9779999999999995 # B13
  0.4999999999999997    0.4999999999999998    0.3970000000000002 # B14
  0.3122000000000001    0.5921000000000000    0.2970000000000000 # B15
  0.2969000000000000    0.4425000000000000    0.4779999999999999 # B16
  0.6877999999999997   -0.0921000000000001    0.7969999999999995 # B17
  0.7030999999999997    0.0575000000000003    0.9779999999999995 # B18
  0.6877999999999997    0.4079000000000002    0.2970000000000000 # B19
  0.7030999999999997    0.5575000000000001    0.4779999999999999 # B20
  0.0659000000000001    0.0830000000000002    0.3070000000000000 # O1
  0.0852000000000002   -0.0705999999999998    0.4939999999999998 # O2
  0.2546000000000000    0.0260999999999999    0.3990000000000000 # O3
  0.2456999999999998    0.1750000000000002    0.2030000000000002 # O4
  0.2797000000000002   -0.1200000000000002    0.5709999999999998 # O5
  1.0165000000000000    0.1774000000000003    0.7509999999999999 # O6
  0.0659000000000001    0.5830000000000000    0.8069999999999996 # O7
  0.0852000000000002    0.4294000000000000    0.9939999999999993 # O8
  0.2546000000000000    0.5261000000000001    0.8989999999999997 # O9
  0.2457000000000002    0.6749999999999998    0.7029999999999996 # O10
  0.2797000000000002    0.3800000000000001    1.0709999999999995 # O11
  1.0165000000000000    0.6774000000000001    0.2509999999999997 # O12
 -0.0659000000000001   -0.0830000000000002    0.3070000000000000 # O13
 -0.0852000000000002    0.0706000000000002    0.4939999999999998 # O14
 -0.2546000000000000   -0.0260999999999999    0.3990000000000000 # O15
 -0.2456999999999998   -0.1750000000000002    0.2030000000000002 # O16
 -0.2796999999999997    0.1200000000000002    0.5709999999999998 # O17
 -0.0165000000000000    0.8226000000000003    0.7509999999999999 # O18
 -0.0658999999999997    0.4170000000000001    0.8069999999999996 # O19
 -0.0851999999999997    0.5706000000000000    0.9939999999999993 # O20
 -0.2546000000000000    0.4738999999999999    0.8989999999999997 # O21
 -0.2456999999999998    0.3250000000000001    0.7029999999999996 # O22
 -0.2796999999999997    0.6200000000000000    1.0709999999999995 # O23
 -0.0165000000000000    0.3226000000000000    0.2509999999999997 # O24
  0.4341000000000001    0.0830000000000002    0.8069999999999996 # O25
  0.4148000000000001   -0.0705999999999998    0.9939999999999993 # O26
  0.2454000000000001    0.0260999999999999    0.8989999999999997 # O27
  0.2542999999999999    0.1750000000000002    0.7029999999999996 # O28
  0.2203000000000000   -0.1199999999999997    1.0709999999999995 # O29
  0.4834999999999998    0.1773999999999998    0.2509999999999997 # O30
  0.4341000000000001    0.5830000000000000    0.3070000000000000 # O31
  0.4148000000000001    0.4294000000000000    0.4939999999999998 # O32
  0.2454000000000001    0.5261000000000001    0.3990000000000000 # O33
  0.2542999999999999    0.6749999999999998    0.2030000000000002 # O34
  0.2203000000000000    0.3800000000000001    0.5709999999999998 # O35
  0.4835000000000003    0.6774000000000001    0.7509999999999999 # O36
  0.5658999999999998   -0.0829999999999997    0.8069999999999996 # O37
  0.5851999999999998    0.0706000000000002    0.9939999999999993 # O38
  0.7545999999999998   -0.0260999999999999    0.8989999999999997 # O39
  0.7456999999999998   -0.1750000000000002    0.7029999999999996 # O40
  0.7796999999999997    0.1200000000000002    1.0709999999999995 # O41
  0.5165000000000001    0.8226000000000003    0.2509999999999997 # O42
  0.5658999999999998    0.4170000000000001    0.3070000000000000 # O43
  0.5851999999999998    0.5706000000000000    0.4939999999999998 # O44
  0.7545999999999998    0.4738999999999999    0.3990000000000000 # O45
  0.7456999999999998    0.3250000000000001    0.2030000000000002 # O46
  0.7796999999999997    0.6200000000000000    0.5709999999999998 # O47
  0.5165000000000001    0.3226000000000000    0.7509999999999999 # O48
