$cell vectors
1.0
  2.9659986043731084    0.0000000000000000    0.0000000000000000
  0.0000000000000000    4.5219978722101111    0.0000000000000000
  0.0000000000000000    0.0000000000000000    4.3699979437324581
 2 2 4
Direct
  0.0000000000000000    0.2941000000000001    0.2499999999999997 # Fe1
  0.0000000000000000    0.7058999999999997    0.7500000000000002 # Fe2
  0.4999999999999992    0.7570000000000006    0.2499999999999997 # Ti1
  0.4999999999999992    0.2430000000000005    0.7500000000000002 # Ti2
  0.0000000000000000    0.0000000000000000    0.0000000000000000 # H1
  0.4999999999999992    0.3000000000000004    0.2499999999999997 # H2
  0.0000000000000000    0.0000000000000000    0.5000000000000004 # H3
  0.4999999999999992    0.6999999999999996    0.7500000000000002 # H4
