$cell vectors
1.0
 13.9949934147679116    0.0000000000000000    0.0000000000000000
  0.0000000000000000    8.3339960785048817    0.0000000000000000
  0.0000000000000000    0.0000000000000000    5.0639976171764731
 8 8 20 24
Direct
  0.1251000000000000    1.1164999999999998    0.1035000000000000 # P1
  0.0690000000000000    0.7899999999999998   -0.0620000000000002 # P2
 -0.1251000000000000    0.8834999999999995    0.1035000000000000 # P3
 -0.0690000000000000    1.2099999999999995   -0.0620000000000002 # P4
  0.6251000000000002    0.3834999999999998    0.8964999999999999 # P5
  0.5689999999999998    0.7099999999999997    1.0619999999999989 # P6
  0.3749000000000002    0.6165000000000002    0.8964999999999999 # P7
  0.4310000000000002    0.2900000000000001    1.0619999999999989 # P8
  0.0164999999999999    1.1909999999999996    0.1600999999999996 # N1
  0.1136999999999999    0.9720000000000001   -0.1179999999999997 # N2
 -0.0164999999999999    0.8089999999999999    0.1600999999999996 # N3
 -0.1136999999999999    1.0279999999999996   -0.1179999999999997 # N4
  0.5165000000000001    0.3090000000000003    0.8399000000000003 # N5
  0.6137000000000001    0.5279999999999998    1.1179999999999992 # N6
  0.4834999999999999    0.6909999999999998    0.8399000000000003 # N7
  0.3862999999999999    0.4720000000000002    1.1179999999999992 # N8
  0.1841000000000000    1.2468999999999997   -0.0290000000000004 # O1
  0.1623000000000001    1.0545999999999998    0.3587000000000001 # O2
  0.1444000000000001    0.6859999999999999    0.0757000000000000 # O3
  0.0317999999999999    0.7240000000000003   -0.3160000000000000 # O4
  0.3483000000000002    0.9619999999999997    0.4801000000000002 # O5
 -0.1841000000000000    0.7530999999999998   -0.0290000000000004 # O6
 -0.1623000000000001    0.9453999999999997    0.3587000000000001 # O7
 -0.1444000000000001    1.3139999999999994    0.0757000000000000 # O8
 -0.0317999999999999    1.2759999999999998   -0.3160000000000000 # O9
  0.6516999999999998    0.0380000000000002    0.4801000000000002 # O10
  0.6841000000000003    0.2531000000000000    1.0289999999999990 # O11
  0.6623000000000000    0.4454000000000000    0.6412999999999998 # O12
  0.6443999999999999    0.8139999999999998    0.9242999999999998 # O13
  0.5318000000000002    0.7760000000000001    1.3159999999999998 # O14
  0.8483000000000002    0.5379999999999999    0.5198999999999998 # O15
  0.3158999999999998    0.7468999999999999    1.0289999999999990 # O16
  0.3377000000000001    0.5546000000000000    0.6412999999999998 # O17
  0.3556000000000001    0.1860000000000003    0.9242999999999998 # O18
  0.4681999999999999    0.2239999999999999    1.3159999999999998 # O19
  0.1517000000000000    0.4620000000000001    0.5198999999999998 # O20
  0.0070000000000002    1.2060000000000000    0.2830000000000001 # H1
  0.1170000000000001    1.0009999999999997   -0.3180000000000003 # H2
  0.2300000000000001    0.7160000000000000    0.0529999999999995 # H3
  0.3600000000000000    0.8770000000000000    0.2500000000000002 # H4
  0.2800000000000001    0.9899999999999999    0.4259999999999995 # H5
  0.4180000000000001    1.0149999999999999    0.4669999999999995 # H6
 -0.0069999999999998    0.7940000000000002    0.2830000000000001 # H7
 -0.1170000000000001    0.9989999999999998   -0.3180000000000003 # H8
  0.7699999999999999    0.2840000000000002    0.0529999999999995 # H9
  0.6400000000000001    0.1230000000000000    0.2500000000000002 # H10
  0.7200000000000001    0.0100000000000002    0.4259999999999995 # H11
  0.5820000000000001   -0.0149999999999999    0.4669999999999995 # H12
  0.5070000000000001    0.2939999999999997    0.7169999999999997 # H13
  0.6170000000000000    0.4990000000000002    1.3180000000000003 # H14
  0.7299999999999999    0.7839999999999998    0.9469999999999991 # H15
  0.8600000000000002    0.6229999999999997    0.7499999999999996 # H16
  0.7800000000000002    0.5099999999999999    0.5740000000000003 # H17
  0.9179999999999999    0.4849999999999998    0.5329999999999994 # H18
  0.4930000000000000    0.7059999999999996    0.7169999999999997 # H19
  0.3830000000000001    0.5009999999999999    1.3180000000000003 # H20
  0.2700000000000001    0.2160000000000001    0.9469999999999991 # H21
  0.1400000000000002    0.3769999999999997    0.7499999999999996 # H22
  0.2200000000000001    0.4900000000000002    0.5740000000000003 # H23
  0.0820000000000001    0.5149999999999997    0.5329999999999994 # H24
