$cell vectors
1.0
 13.7939935093468105    0.0000000000000000    0.0000000000000000
  0.0000000000000000   23.8999887540516731    0.0000000000000000
  0.0000000000000000    0.0000000000000000    8.4167960395440211
 24 24 96
Direct
  0.2940000000000002    0.1690000000000000    0.1299999999999999 # P1
  0.6110000000000001    0.0630000000000001    0.1360000000000001 # P2
  0.1070000000000000    0.7739999999999997    0.1219999999999999 # P3
  0.7889999999999998    0.6649999999999999    0.1299999999999999 # P4
  0.1070000000000000    0.5599999999999999    0.1119999999999999 # P5
  0.6050000000000001    0.2729999999999999    0.1409999999999998 # P6
  0.7060000000000003    0.8309999999999998    0.1299999999999999 # P7
  0.3890000000000002    0.9370000000000001    0.1360000000000001 # P8
  0.8929999999999999    0.2260000000000001    0.1219999999999999 # P9
  0.2110000000000001    0.3350000000000000    0.1299999999999999 # P10
  0.8929999999999999    0.4400000000000000    0.1119999999999999 # P11
  0.3950000000000000    0.7269999999999998    0.1409999999999998 # P12
  0.7059999999999998    0.1690000000000000    0.6299999999999999 # P13
  0.3889999999999998    0.0630000000000001    0.6360000000000001 # P14
  0.8929999999999999    0.7739999999999997    0.6220000000000003 # P15
  0.2110000000000001    0.6649999999999999    0.6299999999999999 # P16
  0.8929999999999999    0.5599999999999999    0.6120000000000000 # P17
  0.3950000000000000    0.2729999999999999    0.6409999999999998 # P18
  0.2940000000000002    0.8309999999999998    0.6299999999999999 # P19
  0.6110000000000001    0.9370000000000001    0.6360000000000001 # P20
  0.1070000000000000    0.2260000000000001    0.6219999999999998 # P21
  0.7889999999999998    0.3350000000000000    0.6299999999999999 # P22
  0.1070000000000000    0.4400000000000000    0.6120000000000000 # P23
  0.6050000000000001    0.7269999999999998    0.6410000000000005 # P24
  0.2920000000000000    0.1690000000000000    0.4970000000000002 # Al1
  0.6110000000000001    0.0609999999999999    0.5170000000000001 # Al2
  0.1110000000000003    0.7739999999999997    0.5000000000000000 # Al3
  0.7880000000000003    0.6669999999999999    0.5030000000000003 # Al4
  0.1040000000000001    0.5609999999999998    0.4840000000000004 # Al5
  0.6080000000000003    0.2740000000000000    0.5119999999999997 # Al6
  0.7080000000000000    0.8309999999999998    0.4970000000000002 # Al7
  0.3890000000000002    0.9389999999999997    0.5170000000000001 # Al8
  0.8890000000000000    0.2260000000000001    0.5000000000000000 # Al9
  0.2120000000000001    0.3330000000000000    0.5030000000000003 # Al10
  0.8960000000000000    0.4390000000000000    0.4839999999999998 # Al11
  0.3920000000000001    0.7259999999999998    0.5119999999999997 # Al12
  0.7080000000000000    0.1690000000000000    0.9970000000000002 # Al13
  0.3889999999999998    0.0609999999999999    0.0170000000000001 # Al14
  0.8890000000000000    0.7739999999999997    0.0000000000000000 # Al15
  0.2120000000000001    0.6669999999999999    0.0030000000000004 # Al16
  0.8960000000000000    0.5610000000000001    0.9839999999999998 # Al17
  0.3920000000000001    0.2740000000000000    0.0119999999999998 # Al18
  0.2920000000000000    0.8309999999999998    0.9970000000000002 # Al19
  0.6110000000000001    0.9389999999999997    0.0170000000000001 # Al20
  0.1109999999999999    0.2260000000000001    0.0000000000000000 # Al21
  0.7879999999999999    0.3329999999999998    0.0030000000000004 # Al22
  0.1040000000000001    0.4390000000000000    0.9839999999999998 # Al23
  0.6080000000000003    0.7259999999999998    0.0119999999999998 # Al24
  0.3150000000000001    0.1080000000000001    0.1020000000000000 # O1
  0.3129999999999999    0.1770000000000000    0.2969999999999999 # O2
  0.1910000000000002    0.1809999999999999    0.0749999999999999 # O3
  0.3629999999999999    0.2059999999999999    0.0499999999999998 # O4
  0.6809999999999998    0.1029999999999999    0.0560000000000000 # O5
  0.6280000000000001    0.0689999999999999    0.3159999999999999 # O6
  0.6350000000000000    0.0030000000000000    0.0900000000000002 # O7
  0.5080000000000001    0.0780000000000000    0.0700000000000003 # O8
  0.0030000000000003    0.7889999999999996    0.0740000000000000 # O9
  0.1210000000000001    0.7829999999999999    0.2969999999999999 # O10
  0.1740000000000002    0.8159999999999997    0.0399999999999998 # O11
  0.1290000000000000    0.7159999999999995    0.0540000000000001 # O12
  0.8109999999999999    0.6080000000000000    0.0489999999999998 # O13
  0.8100000000000004    0.6600000000000000    0.3040000000000000 # O14
  0.6840000000000003    0.6820000000000001    0.1090000000000001 # O15
  0.8530000000000000    0.7079999999999997    0.0500000000000004 # O16
  0.1820000000000002    0.6039999999999998    0.0910000000000001 # O17
  0.0979999999999999    0.5589999999999998    0.2830000000000003 # O18
  0.1359999999999999    0.5039999999999998    0.0440000000000002 # O19
  0.0119999999999999    0.5779999999999998    0.0340000000000002 # O20
  0.5040000000000001    0.2879999999999999    0.0830000000000000 # O21
  0.6220000000000000    0.2879999999999999    0.3120000000000002 # O22
  0.6750000000000000    0.3140000000000001    0.0689999999999997 # O23
  0.6330000000000003    0.2140000000000000    0.1000000000000001 # O24
  0.6850000000000004    0.8919999999999999    0.1020000000000000 # O25
  0.6870000000000001    0.8230000000000000    0.2969999999999999 # O26
  0.8090000000000002    0.8189999999999998    0.0749999999999999 # O27
  0.6370000000000002    0.7939999999999999    0.0500000000000004 # O28
  0.3190000000000001    0.8969999999999998    0.0560000000000000 # O29
  0.3720000000000002    0.9309999999999999    0.3159999999999999 # O30
  0.3650000000000000    0.9970000000000001    0.0900000000000002 # O31
  0.4920000000000002    0.9219999999999997    0.0700000000000003 # O32
  0.9970000000000001    0.2109999999999999    0.0740000000000000 # O33
  0.8790000000000001    0.2170000000000000    0.2969999999999999 # O34
  0.8260000000000002    0.1839999999999999    0.0399999999999998 # O35
  0.8709999999999999    0.2840000000000000    0.0540000000000001 # O36
  0.1890000000000000    0.3920000000000000    0.0489999999999998 # O37
  0.1900000000000001    0.3399999999999999    0.3040000000000000 # O38
  0.3159999999999999    0.3179999999999999    0.1090000000000001 # O39
  0.1470000000000001    0.2920000000000000    0.0499999999999998 # O40
  0.8179999999999999    0.3959999999999999    0.0910000000000001 # O41
  0.9020000000000000    0.4409999999999998    0.2830000000000003 # O42
  0.8640000000000002    0.4960000000000000    0.0440000000000002 # O43
  0.9880000000000000    0.4220000000000000    0.0340000000000002 # O44
  0.4959999999999998    0.7119999999999997    0.0830000000000000 # O45
  0.3780000000000001    0.7119999999999997    0.3120000000000002 # O46
  0.3250000000000000    0.6859999999999998    0.0689999999999997 # O47
  0.3670000000000002    0.7860000000000000    0.1000000000000001 # O48
  0.6849999999999998    0.1080000000000001    0.6019999999999999 # O49
  0.6870000000000001    0.1770000000000000    0.7969999999999999 # O50
  0.8089999999999998    0.1810000000000001    0.5750000000000000 # O51
  0.6369999999999999    0.2059999999999999    0.5500000000000004 # O52
  0.3190000000000001    0.1030000000000001    0.5559999999999999 # O53
  0.3719999999999999    0.0689999999999999    0.8159999999999998 # O54
  0.3650000000000000    0.0030000000000000    0.5900000000000001 # O55
  0.4919999999999998    0.0780000000000000    0.5700000000000003 # O56
  0.9970000000000001    0.7889999999999996    0.5740000000000001 # O57
  0.8790000000000001    0.7829999999999999    0.7969999999999999 # O58
  0.8260000000000002    0.8159999999999997    0.5400000000000003 # O59
  0.8709999999999999    0.7159999999999995    0.5540000000000000 # O60
  0.1890000000000000    0.6080000000000000    0.5490000000000004 # O61
  0.1900000000000001    0.6600000000000000    0.8040000000000000 # O62
  0.3159999999999999    0.6820000000000001    0.6090000000000000 # O63
  0.1470000000000001    0.7079999999999997    0.5500000000000004 # O64
  0.8179999999999999    0.6039999999999998    0.5910000000000001 # O65
  0.9020000000000000    0.5589999999999998    0.7830000000000001 # O66
  0.8640000000000002    0.5039999999999998    0.5440000000000002 # O67
  0.9880000000000000    0.5779999999999998    0.5340000000000000 # O68
  0.4959999999999998    0.2879999999999999    0.5830000000000000 # O69
  0.3780000000000001    0.2879999999999999    0.8120000000000002 # O70
  0.3250000000000000    0.3140000000000001    0.5689999999999997 # O71
  0.3670000000000002    0.2140000000000000    0.6000000000000000 # O72
  0.3150000000000001    0.8919999999999999    0.6019999999999999 # O73
  0.3129999999999999    0.8230000000000000    0.7969999999999999 # O74
  0.1910000000000002    0.8189999999999998    0.5750000000000000 # O75
  0.3630000000000002    0.7939999999999999    0.5500000000000004 # O76
  0.6810000000000000    0.8969999999999998    0.5559999999999999 # O77
  0.6280000000000001    0.9309999999999999    0.8160000000000005 # O78
  0.6350000000000000    0.9970000000000001    0.5900000000000001 # O79
  0.5080000000000001    0.9219999999999997    0.5700000000000003 # O80
  0.0029999999999999    0.2109999999999999    0.5740000000000001 # O81
  0.1210000000000001    0.2170000000000000    0.7969999999999999 # O82
  0.1740000000000002    0.1840000000000001    0.5399999999999997 # O83
  0.1290000000000000    0.2840000000000000    0.5540000000000000 # O84
  0.8109999999999999    0.3920000000000000    0.5489999999999998 # O85
  0.8100000000000004    0.3399999999999999    0.8040000000000000 # O86
  0.6840000000000003    0.3179999999999999    0.6090000000000000 # O87
  0.8530000000000000    0.2920000000000000    0.5500000000000004 # O88
  0.1820000000000002    0.3959999999999999    0.5910000000000001 # O89
  0.0979999999999999    0.4409999999999998    0.7830000000000001 # O90
  0.1359999999999999    0.4960000000000000    0.5440000000000002 # O91
  0.0119999999999999    0.4220000000000000    0.5340000000000000 # O92
  0.5040000000000001    0.7119999999999997    0.5830000000000000 # O93
  0.6220000000000000    0.7119999999999997    0.8120000000000002 # O94
  0.6750000000000000    0.6859999999999998    0.5690000000000004 # O95
  0.6330000000000003    0.7860000000000000    0.6000000000000000 # O96
