$cell vectors
1.0
 10.2299951863576855    0.0000000000000000    0.0000000000000000
  0.0000000000000000    7.5799964332933758    0.0000000000000000
  0.0000000000000000    0.0000000000000000   10.0399952757606190
 8 8 28
Direct
  0.1985999999999999    0.9742999999999996    0.0062000000000000 # K1
  0.1985999999999999    0.4742999999999997    0.5061999999999997 # K2
  0.8013999999999999    0.0256999999999996    0.0062000000000000 # K3
  0.8013999999999999    0.5257000000000003    0.5061999999999997 # K4
  0.3014000000000002    0.9743000000000004    0.5061999999999997 # K5
  0.3013999999999998    0.4742999999999997    0.0062000000000000 # K6
  0.6985999999999996    0.0257000000000003    0.5061999999999997 # K7
  0.6985999999999996    0.5256999999999995    0.0062000000000000 # K8
  0.5092000000000000    0.2078000000000001    0.2444000000000002 # Al1
  0.5092000000000000    0.7078000000000001    0.7443999999999998 # Al2
  0.4907999999999999   -0.2078000000000001    0.2444000000000002 # Al3
  0.4907999999999999    0.2921999999999999    0.7443999999999998 # Al4
  0.9908000000000000    0.2078000000000001    0.7443999999999998 # Al5
  0.9908000000000000    0.7078000000000001    0.2444000000000002 # Al6
  1.0091999999999997   -0.2078000000000001    0.7443999999999998 # Al7
  1.0091999999999997    0.2921999999999999    0.2444000000000002 # Al8
  1.0684999999999996    0.2823999999999997    0.0812999999999998 # O1
  0.3569000000000001    0.3201999999999998    0.2482999999999998 # O2
  1.1198999999999995    0.1693999999999997    0.3415999999999997 # O3
  1.0000000000000000    0.5000000000000000    0.3152999999999998 # O4
  1.0684999999999996   -0.2175999999999997    0.5813000000000000 # O5
  0.3569000000000001    0.8202000000000005    0.7483000000000001 # O6
  1.1198999999999995   -0.3305999999999996    0.8415999999999999 # O7
  1.0000000000000000    0.0000000000000000    0.8153000000000000 # O8
  0.9314999999999997    0.7176000000000003    0.0812999999999998 # O9
  0.6430999999999997   -0.3201999999999998    0.2482999999999998 # O10
  0.8800999999999999    0.8306000000000002    0.3415999999999997 # O11
  0.9314999999999997    0.2176000000000003    0.5813000000000000 # O12
  0.6430999999999997    0.1798000000000002    0.7483000000000001 # O13
  0.8800999999999999    0.3306000000000002    0.8415999999999999 # O14
  0.4314999999999999    0.2824000000000004    0.5813000000000000 # O15
  1.1430999999999996    0.3201999999999998    0.7483000000000001 # O16
  0.3800999999999997    0.1694000000000004    0.8415999999999999 # O17
  0.4999999999999997    0.5000000000000000    0.8153000000000000 # O18
  0.4314999999999999   -0.2176000000000003    0.0812999999999998 # O19
  1.1430999999999996    0.8201999999999998    0.2482999999999998 # O20
  0.3800999999999997   -0.3305999999999996    0.3415999999999997 # O21
  0.4999999999999997    0.0000000000000000    0.3152999999999998 # O22
  0.5685000000000000    0.7176000000000003    0.5813000000000000 # O23
  0.8568999999999998   -0.3201999999999998    0.7483000000000001 # O24
  0.6199000000000001    0.8306000000000002    0.8415999999999999 # O25
  0.5685000000000000    0.2176000000000003    0.0812999999999998 # O26
  0.8568999999999998    0.1798000000000002    0.2482999999999998 # O27
  0.6198999999999997    0.3306000000000002    0.3415999999999997 # O28
