$cell vectors
1.0
 11.5419945690068761    0.0000000000000000    0.0000000000000000
  0.0000000000000000   12.6899940288249251    0.0000000000000000
  0.0000000000000000    0.0000000000000000    3.9739981300670011
 6 4 14
Direct
  0.0000000000000000    0.4999999999999999    0.0000000000000000 # Eu1
  0.3867000000000002    0.6464000000000000    0.0000000000000000 # Eu2
  0.6133000000000003    0.3536000000000001    0.0000000000000000 # Eu3
  0.5000000000000002    0.9999999999999994    0.0000000000000000 # Eu4
  0.8866999999999999    0.8536000000000000    0.0000000000000000 # Eu5
  0.1133000000000000    0.1463999999999999    0.0000000000000000 # Eu6
  0.2737000000000000    0.3881999999999999    0.5000000000000000 # Sn1
  0.7263000000000001    0.6118000000000001    0.5000000000000000 # Sn2
  0.7737000000000002    0.1118000000000000    0.5000000000000000 # Sn3
  0.2263000000000002    0.8881999999999999    0.5000000000000000 # Sn4
  0.3482000000000002    0.2950999999999998    0.0000000000000000 # S1
  0.2951000000000001    0.0646999999999998    0.5000000000000000 # S2
  0.0757000000000000    0.3190999999999999    0.5000000000000000 # S3
  0.0000000000000000    0.0000000000000000    0.5000000000000000 # S4
  0.6518000000000003    0.7048999999999997    0.0000000000000000 # S5
  0.7049000000000003    0.9352999999999999    0.5000000000000000 # S6
  0.9243000000000000    0.6809000000000001    0.5000000000000000 # S7
  0.8482000000000000    0.2049000000000002    0.0000000000000000 # S8
  0.7950999999999999    0.4352999999999999    0.5000000000000000 # S9
  0.5757000000000003    0.1808999999999997    0.5000000000000000 # S10
  0.5000000000000002    0.4999999999999999    0.5000000000000000 # S11
  0.1518000000000000    0.7950999999999998    0.0000000000000000 # S12
  0.2049000000000001    0.5646999999999998    0.5000000000000000 # S13
  0.4243000000000002    0.8190999999999999    0.5000000000000000 # S14
