$cell vectors
1.0
  7.0696966734108386    0.0000000000000000    0.0000000000000000
  0.0000000000000000   25.4922880048080103    0.0000000000000000
  0.0000000000000000    0.0000000000000000    7.0268966935500305
 12 8 28
Direct
  0.2500000000000006    0.7500000000000002    0.0000000000000000 # Ba1
  0.2460000000000003    0.9318000000000000    0.0000000000000000 # Ba2
  0.7500000000000003    0.2500000000000000    0.0000000000000000 # Ba3
  0.7460000000000008    0.4318000000000000    0.0000000000000000 # Ba4
  0.7540000000000007    0.0682000000000001    0.0000000000000000 # Ba5
  0.2540000000000002    0.5682000000000001    0.0000000000000000 # Ba6
  0.2499999999999998    0.2500000000000000    0.5000000000000000 # Ba7
  0.2460000000000003    0.0682000000000001    0.5000000000000000 # Ba8
  0.7460000000000008    0.5682000000000001    0.5000000000000000 # Ba9
  0.7500000000000003    0.7500000000000002    0.5000000000000000 # Ba10
  0.7540000000000007    0.9318000000000000    0.5000000000000000 # Ba11
  0.2540000000000002    0.4318000000000000    0.5000000000000000 # Ba12
  0.2609999999999998    0.1590000000000001    0.0000000000000000 # Zr1
  0.7610000000000002    0.6589999999999999    0.0000000000000000 # Zr2
  0.7390000000000002    0.8410000000000000    0.0000000000000000 # Zr3
  0.2389999999999999    0.3410000000000001    0.0000000000000000 # Zr4
  0.2610000000000006    0.8409999999999999    0.5000000000000000 # Zr5
  0.7610000000000010    0.3410000000000001    0.5000000000000000 # Zr6
  0.7390000000000002    0.1590000000000001    0.5000000000000000 # Zr7
  0.2389999999999999    0.6589999999999999    0.5000000000000000 # Zr8
  0.2499999999999998    0.2500000000000000    0.0000000000000000 # S1
  0.0000000000000000    0.1590000000000001    0.2500000000000000 # S2
  0.2190000000000005    0.0519999999999999    0.0000000000000000 # S3
  0.0000000000000000    0.3500000000000000    0.2500000000000000 # S4
  0.7500000000000003    0.7500000000000002    0.0000000000000000 # S5
  0.5000000000000004    0.6589999999999999    0.2500000000000000 # S6
  0.7190000000000001    0.5520000000000000    0.0000000000000000 # S7
  0.5000000000000004    0.8499999999999999    0.2500000000000000 # S8
  1.0000000000000000    0.8410000000000000    0.7499999999999999 # S9
  0.7810000000000002    0.9479999999999998    0.0000000000000000 # S10
  0.0000000000000000    0.6500000000000001    0.7499999999999999 # S11
  0.5000000000000004    0.3410000000000001    0.7499999999999999 # S12
  0.2810000000000000    0.4480000000000001    0.0000000000000000 # S13
  0.5000000000000004    0.1499999999999999    0.7499999999999999 # S14
  1.0000000000000000    0.8410000000000000    0.2500000000000000 # S15
  0.0000000000000000    0.6500000000000001    0.2500000000000000 # S16
  0.0000000000000000    0.3500000000000000    0.7499999999999999 # S17
  0.5000000000000004    0.6589999999999999    0.7499999999999999 # S18
  0.5000000000000004    0.8499999999999999    0.7499999999999999 # S19
  0.2500000000000006    0.7500000000000000    0.5000000000000000 # S20
  0.2190000000000005    0.9479999999999998    0.5000000000000000 # S21
  0.7500000000000003    0.2500000000000000    0.5000000000000000 # S22
  0.5000000000000004    0.3410000000000001    0.2500000000000000 # S23
  0.7190000000000001    0.4480000000000001    0.5000000000000000 # S24
  0.5000000000000004    0.1499999999999999    0.2500000000000000 # S25
  0.0000000000000000    0.1590000000000001    0.7499999999999999 # S26
  0.7810000000000002    0.0520000000000001    0.5000000000000000 # S27
  0.2810000000000000    0.5520000000000000    0.5000000000000000 # S28
