$cell vectors
1.0
  4.8379977235189111    0.0000000000000000    0.0000000000000000
  0.0000000000000000    8.1469961664961925    0.0000000000000000
  0.0000000000000000    0.0000000000000000    6.1069971264014065
 8 4 4
Direct
  0.0000000000000000    0.3379999999999999    0.2540000000000001 # Ti1
  0.0000000000000000    0.6620000000000000    0.7459999999999999 # Ti2
  0.5000000000000006    0.1619999999999998    0.7459999999999999 # Ti3
  0.0000000000000000    0.6620000000000000    0.2540000000000001 # Ti4
  0.5000000000000006    0.1619999999999998    0.2540000000000001 # Ti5
  0.0000000000000000    0.3379999999999999    0.7459999999999999 # Ti6
  0.5000000000000006    0.8380000000000002    0.7459999999999999 # Ti7
  0.5000000000000006    0.8380000000000002    0.2540000000000001 # Ti8
  0.0000000000000000    0.0000000000000000    0.0000000000000000 # Zr1
  0.0000000000000000    0.0000000000000000    0.4999999999999996 # Zr2
  0.5000000000000006    0.4999999999999997    0.0000000000000000 # Zr3
  0.5000000000000006    0.4999999999999997    0.4999999999999996 # Zr4
  0.5000000000000006    0.2499999999999999    0.0000000000000000 # O1
  0.5000000000000006    0.7500000000000002    0.0000000000000000 # O2
  0.0000000000000000    0.2499999999999999    0.0000000000000000 # O3
  0.0000000000000000    0.7500000000000002    0.0000000000000000 # O4
