$cell vectors
1.0
  5.9669971922772547    0.0000000000000000    0.0000000000000000
  0.0000000000000000   10.4799950687222410    0.0000000000000000
  0.0000000000000000    0.0000000000000000    5.4019974581333505
 4 8 8
Direct
  0.0000000000000000    0.0000000000000000    0.2500000000000005 # Zn1
  0.5000000000000000    0.5000000000000000    0.7500000000000004 # Zn2
  0.0000000000000000    0.0000000000000000    0.7500000000000004 # Zn3
  0.5000000000000000    0.5000000000000000    0.2500000000000005 # Zn4
  0.3679999999999998    0.1530000000000001    0.0000000000000000 # K1
  0.8679999999999997    0.6530000000000000    0.5000000000000000 # K2
  0.6319999999999993    0.8470000000000002    0.0000000000000000 # K3
  0.1320000000000002    0.3469999999999999    0.5000000000000000 # K4
  0.3679999999999998    0.8470000000000002    0.5000000000000000 # K5
  0.1320000000000002    0.6530000000000000    0.0000000000000000 # K6
  0.8679999999999997    0.3469999999999999    0.0000000000000000 # K7
  0.6319999999999993    0.1530000000000001    0.5000000000000000 # K8
  0.1970000000000003    0.9079999999999999    0.0000000000000000 # O1
  0.6969999999999993    0.4079999999999998    0.5000000000000000 # O2
  0.8029999999999996    0.0919999999999997    0.0000000000000000 # O3
  0.3029999999999997    0.5919999999999997    0.5000000000000000 # O4
  0.3029999999999997    0.4079999999999998    0.0000000000000000 # O5
  0.6969999999999993    0.5919999999999997    0.0000000000000000 # O6
  0.1970000000000003    0.0920000000000003    0.5000000000000000 # O7
  0.8029999999999996    0.9079999999999999    0.5000000000000000 # O8
