$cell vectors
1.0
 11.2269947172275355    0.0000000000000000    0.0000000000000000
  0.0000000000000000    6.7899968050213744    0.0000000000000000
  0.0000000000000000    0.0000000000000000   21.1859900311020368
 8 8 76 56
Direct
  0.0000000000000000    0.1911000000000004    0.0795999999999999 # U1
  0.3875999999999998    0.7013000000000001    0.2004000000000001 # U2
  0.5000000000000002    0.8089000000000004    0.9204000000000000 # U3
  0.8876000000000002    0.2987000000000000    0.7996000000000000 # U4
  0.5000000000000002    0.1911000000000004    0.4203999999999999 # U5
  0.8876000000000002    0.7013000000000001    0.2996000000000001 # U6
  0.0000000000000000    0.8089000000000004    0.5796000000000000 # U7
  0.3875999999999998    0.2987000000000000    0.7004000000000000 # U8
  0.1164000000000002    0.6889999999999998    0.1033000000000001 # S1
  0.2961000000000001    0.1933000000000002    0.1512000000000000 # S2
  0.6164000000000004    0.3110000000000003    0.8966999999999999 # S3
  0.7961000000000003    0.8067000000000006    0.8488000000000000 # S4
  0.6164000000000004    0.6889999999999998    0.3967000000000001 # S5
  0.7961000000000003    0.1933000000000002    0.3487999999999999 # S6
  0.1164000000000002    0.3110000000000003    0.6032999999999999 # S7
  0.2961000000000001    0.8067000000000006    0.6511999999999999 # S8
  0.9050000000000004    0.1839999999999997    0.1451000000000000 # O1
  0.0890000000000002    0.1890000000000002    0.0133000000000000 # O2
  0.4510000000000000    0.7029999999999995    0.1239000000000001 # O3
  0.3260000000000002    0.7050000000000003    0.2758000000000000 # O4
  0.0430000000000000    0.5140000000000002    0.1194000000000000 # O5
  0.1880000000000001    0.7339999999999999    0.1603999999999999 # O6
  0.1889999999999998    0.6470000000000005    0.0492000000000001 # O7
  0.0300000000000001    0.8500000000000003    0.0940000000000000 # O8
  0.3179999999999999    0.3820000000000001    0.1826000000000000 # O9
  0.3410000000000000    0.0390000000000004    0.1947000000000000 # O10
  0.3519999999999999    0.1900000000000001    0.0904000000000000 # O11
  0.1639999999999998    0.1670000000000001    0.1467000000000000 # O12
  0.5340000000000003    0.4830000000000000    0.2460000000000001 # O13
  0.8740000000000000    0.4390000000000001    0.0274000000000001 # O14
  0.6560000000000002    0.2039999999999999    0.1869000000000000 # O15
  0.8450000000000000    0.0200000000000002    0.0223000000000001 # O16
  0.5560000000000000    0.8919999999999998    0.2368000000000000 # O17
  0.5950000000000002    0.2900000000000002    0.0729999999999999 # O18
  0.2479999999999999    0.7250000000000004    0.4069000000000002 # O19
  0.4050000000000002    0.8160000000000004    0.8549000000000001 # O20
  0.5890000000000000    0.8110000000000007    0.9867000000000002 # O21
  0.9510000000000005    0.2970000000000004    0.8760999999999999 # O22
  0.8260000000000004    0.2950000000000006    0.7242000000000001 # O23
  0.5430000000000003    0.4860000000000006    0.8806000000000002 # O24
  0.6880000000000003    0.2660000000000003    0.8396000000000000 # O25
  0.6889999999999999    0.3530000000000004    0.9508000000000002 # O26
  0.5300000000000004    0.1500000000000005    0.9060000000000001 # O27
  0.8180000000000001    0.6180000000000002    0.8174000000000005 # O28
  0.8410000000000002    0.9610000000000003    0.8053000000000000 # O29
  0.8520000000000002    0.8100000000000001    0.9096000000000001 # O30
  0.6640000000000000    0.8330000000000001    0.8532999999999999 # O31
  0.0340000000000000    0.5170000000000000    0.7540000000000001 # O32
  0.3740000000000002    0.5610000000000001    0.9725999999999998 # O33
  0.1560000000000001    0.7960000000000004    0.8131000000000000 # O34
  0.3450000000000004    0.9800000000000008    0.9777000000000000 # O35
  0.0560000000000004    0.1080000000000003    0.7632000000000001 # O36
  0.0950000000000000    0.7099999999999999    0.9269999999999999 # O37
  0.7480000000000000    0.2750000000000004    0.5931000000000000 # O38
  0.4050000000000002    0.1840000000000005    0.3549000000000000 # O39
  0.5890000000000000    0.1890000000000002    0.4867000000000001 # O40
  0.9510000000000000    0.7030000000000005    0.3761000000000000 # O41
  0.8260000000000000    0.7050000000000003    0.2241999999999999 # O42
  0.5430000000000003    0.5140000000000002    0.3806000000000001 # O43
  0.6879999999999998    0.7340000000000007    0.3396000000000000 # O44
  0.6889999999999999    0.6470000000000005    0.4508000000000001 # O45
  0.5300000000000004    0.8500000000000003    0.4060000000000001 # O46
  0.8180000000000001    0.3820000000000001    0.3174000000000001 # O47
  0.8410000000000002    0.0390000000000004    0.3053000000000001 # O48
  0.8520000000000002    0.1900000000000001    0.4095999999999999 # O49
  0.6640000000000000    0.1670000000000001    0.3532999999999999 # O50
  0.0340000000000000    0.4830000000000000    0.2540000000000000 # O51
  0.3740000000000002    0.4390000000000001    0.4726000000000000 # O52
  0.1560000000000001    0.2039999999999999    0.3130999999999999 # O53
  0.3449999999999999    0.0200000000000002    0.4777000000000002 # O54
  0.0559999999999999    0.8919999999999998    0.2631999999999999 # O55
  0.0950000000000000    0.2900000000000002    0.4270000000000000 # O56
  0.7480000000000000    0.7250000000000004    0.0931000000000000 # O57
  0.9050000000000004    0.8160000000000004    0.6450999999999999 # O58
  0.0890000000000002    0.8109999999999998    0.5132999999999999 # O59
  0.4510000000000003    0.2970000000000004    0.6238999999999999 # O60
  0.3260000000000002    0.2950000000000006    0.7758000000000002 # O61
  0.0430000000000000    0.4859999999999998    0.6194000000000001 # O62
  0.1880000000000001    0.2660000000000003    0.6604000000000000 # O63
  0.1890000000000003    0.3530000000000004    0.5492000000000000 # O64
  0.0300000000000001    0.1500000000000005    0.5940000000000000 # O65
  0.3179999999999999    0.6180000000000002    0.6826000000000000 # O66
  0.3410000000000000    0.9610000000000003    0.6946999999999999 # O67
  0.3519999999999999    0.8100000000000001    0.5903999999999999 # O68
  0.1640000000000003    0.8330000000000001    0.6467000000000002 # O69
  0.5340000000000003    0.5170000000000000    0.7460000000000000 # O70
  0.8740000000000000    0.5610000000000001    0.5274000000000000 # O71
  0.6560000000000002    0.7960000000000004    0.6869000000000002 # O72
  0.8450000000000000    0.9799999999999999    0.5223000000000000 # O73
  0.5560000000000000    0.1080000000000003    0.7368000000000001 # O74
  0.5950000000000002    0.7099999999999999    0.5730000000000001 # O75
  0.2479999999999999    0.2750000000000004    0.9068999999999999 # O76
  0.5376000000000001    0.4933000000000005    0.2909999999999999 # H1
  0.5749000000000002    0.3904000000000002    0.2262999999999999 # H2
  0.8120000000000004    0.4109000000000000    0.0021000000000000 # H3
  0.8310000000000000    0.5348999999999999    0.0496000000000000 # H4
  0.7386000000000001    0.1982000000000003    0.1726000000000001 # H5
  0.6359999999999999    0.2336999999999998    0.1481000000000001 # H6
  0.8480000000000002    0.9510000000000004    0.9850000000000001 # H7
  0.8149999999999999    0.9220000000000000    0.0457999999999999 # H8
  0.6006000000000000    0.8398000000000003    0.2709999999999999 # H9
  0.5900999999999997    0.9967000000000008    0.2199000000000000 # H10
  0.6272000000000001    0.3110999999999999    0.0313000000000001 # H11
  0.5154000000000000    0.2564000000000001    0.0777000000000000 # H12
  0.1951999999999999    0.7538000000000001    0.4414000000000001 # H13
  0.2741000000000003    0.7182000000000002    0.3628999999999999 # H14
  0.0375999999999999    0.5067000000000003    0.7090000000000001 # H15
  0.0749000000000000    0.6095999999999998    0.7737000000000001 # H16
  0.3120000000000001    0.5891000000000001    0.9979000000000001 # H17
  0.3310000000000003    0.4651000000000001    0.9504000000000001 # H18
  0.2386000000000000    0.8018000000000006    0.8273999999999999 # H19
  0.1360000000000001    0.7663000000000004    0.8519000000000000 # H20
  0.3480000000000000    0.0489999999999997    0.0150000000000001 # H21
  0.3150000000000002    0.0780000000000001    0.9542000000000002 # H22
  0.1005999999999999    0.1602000000000006    0.7290000000000001 # H23
  0.0901000000000001    0.0033000000000002    0.7801000000000002 # H24
  0.1272000000000003    0.6889000000000011    0.9687000000000001 # H25
  0.0154000000000003    0.7435999999999999    0.9223000000000001 # H26
  0.6952000000000002    0.2462000000000001    0.5585999999999999 # H27
  0.7741000000000000    0.2817999999999999    0.6371000000000001 # H28
  0.0375999999999999    0.4933000000000005    0.2089999999999999 # H29
  0.0749000000000000    0.3904000000000002    0.2737000000000000 # H30
  0.3120000000000001    0.4109000000000000    0.4979000000000001 # H31
  0.3310000000000003    0.5348999999999999    0.4503999999999999 # H32
  0.2386000000000000    0.1982000000000003    0.3274000000000001 # H33
  0.1360000000000001    0.2336999999999998    0.3519000000000001 # H34
  0.3480000000000000    0.9510000000000004    0.5150000000000000 # H35
  0.3150000000000002    0.9220000000000000    0.4542000000000000 # H36
  0.1005999999999999    0.8398000000000003    0.2289999999999999 # H37
  0.0901000000000001    0.9967000000000008    0.2801000000000000 # H38
  0.1271999999999998    0.3110999999999999    0.4687000000000000 # H39
  0.0154000000000003    0.2564000000000001    0.4223000000000001 # H40
  0.6952000000000002    0.7538000000000001    0.0586000000000000 # H41
  0.7741000000000000    0.7182000000000002    0.1370999999999999 # H42
  0.5376000000000001    0.5067000000000003    0.7909999999999998 # H43
  0.5749000000000002    0.6095999999999998    0.7263000000000002 # H44
  0.8120000000000004    0.5891000000000001    0.5020999999999999 # H45
  0.8310000000000000    0.4651000000000001    0.5495999999999999 # H46
  0.7386000000000001    0.8018000000000006    0.6726000000000000 # H47
  0.6360000000000002    0.7663000000000004    0.6481000000000000 # H48
  0.8480000000000002    0.0490000000000005    0.4850000000000001 # H49
  0.8149999999999999    0.0780000000000001    0.5458000000000001 # H50
  0.6006000000000000    0.1602000000000006    0.7710000000000001 # H51
  0.5901000000000002    0.0033000000000002    0.7198999999999998 # H52
  0.6272000000000001    0.6889000000000003    0.5313000000000000 # H53
  0.5154000000000000    0.7435999999999999    0.5777000000000000 # H54
  0.1952000000000004    0.2462000000000001    0.9413999999999999 # H55
  0.2741000000000003    0.2818000000000008    0.8629000000000001 # H56
