$cell vectors
1.0
  7.3269965523404430    0.0000000000000000    0.0000000000000000
  0.0000000000000000   20.0799905515212345    0.0000000000000000
  0.0000000000000000    0.0000000000000000    4.1149980637206127
 8 4 32
Direct
  0.9800000000000004    0.1599999999999999    0.0600000000000005 # Mo1
  0.0200000000000003    0.8399999999999999    0.9399999999999994 # Mo2
  0.5199999999999999    0.3399999999999999    0.0600000000000005 # Mo3
  0.4800000000000000    0.6600000000000000    0.9399999999999994 # Mo4
  0.9800000000000004    0.3399999999999999    0.9399999999999994 # Mo5
  0.0200000000000003    0.6600000000000000    0.0600000000000005 # Mo6
  0.5199999999999999    0.1600000000000002    0.9399999999999994 # Mo7
  0.4800000000000000    0.8399999999999999    0.0600000000000005 # Mo8
  0.2499999999999998    0.0129999999999999    0.0000000000000000 # U1
  0.7500000000000002    0.9869999999999999    0.0000000000000000 # U2
  0.2499999999999998    0.4870000000000002    0.0000000000000000 # U3
  0.7500000000000002    0.5130000000000000    0.0000000000000000 # U4
  0.2499999999999998    0.5130000000000000    0.5000000000000006 # O1
  0.9800000000000004    0.1599999999999999    0.4599999999999994 # O2
  0.9399999999999997    0.0600000000000001    0.0899999999999994 # O3
  0.2499999999999998    0.1300000000000000    0.0000000000000000 # O4
  0.2499999999999998    0.6600000000000000    0.0000000000000000 # O5
  0.0000000000000000    0.2499999999999999    0.0000000000000000 # O6
  0.7500000000000002    0.4870000000000002    0.5000000000000006 # O7
  0.0200000000000003    0.8399999999999999    0.5400000000000005 # O8
  0.0600000000000003    0.9399999999999998    0.9100000000000005 # O9
  0.7500000000000002    0.8700000000000001    0.0000000000000000 # O10
  0.7500000000000002    0.3399999999999999    0.0000000000000000 # O11
  0.0000000000000000    0.7500000000000000    0.0000000000000000 # O12
  0.2500000000000006    0.9869999999999999    0.5000000000000006 # O13
  0.5199999999999999    0.3399999999999999    0.4599999999999994 # O14
  0.5599999999999998    0.4400000000000000    0.0899999999999994 # O15
  0.2499999999999998    0.3700000000000001    0.0000000000000000 # O16
  0.2499999999999998    0.8399999999999999    0.0000000000000000 # O17
  0.5000000000000003    0.2499999999999999    0.0000000000000000 # O18
  0.7500000000000002    0.0129999999999999    0.5000000000000006 # O19
  0.4800000000000000    0.6600000000000000    0.5400000000000005 # O20
  0.4400000000000001    0.5600000000000003    0.9100000000000005 # O21
  0.7500000000000002    0.6300000000000000    0.0000000000000000 # O22
  0.7500000000000002    0.1600000000000002    0.0000000000000000 # O23
  0.5000000000000003    0.7500000000000000    0.0000000000000000 # O24
  0.9800000000000004    0.3399999999999999    0.5400000000000005 # O25
  0.9400000000000003    0.4400000000000000    0.9100000000000005 # O26
  0.0200000000000003    0.6600000000000000    0.4599999999999994 # O27
  0.0600000000000003    0.5600000000000003    0.0899999999999994 # O28
  0.5199999999999999    0.1600000000000002    0.5400000000000005 # O29
  0.5599999999999998    0.0600000000000001    0.9100000000000005 # O30
  0.4800000000000000    0.8399999999999999    0.4599999999999994 # O31
  0.4400000000000001    0.9399999999999998    0.0899999999999994 # O32
