$cell vectors
1.0
 10.8399948993272037    0.0000000000000000    0.0000000000000000
  0.0000000000000000   23.6929888514538227    0.0000000000000000
  0.0000000000000000    0.0000000000000000    6.9019967523206969
 8 48 48 96
Direct
  0.0138000000000001    0.1182000000000000    0.0000000000000000 # Cu1
  0.0157000000000000    0.3686000000000000    0.0000000000000000 # Cu2
  0.9861999999999997    0.8818000000000000    0.0000000000000000 # Cu3
  0.9842999999999997    0.6313999999999999    0.0000000000000000 # Cu4
  0.5138000000000003    0.3818000000000001    0.4999999999999997 # Cu5
  0.5157000000000002    0.1314000000000001    0.4999999999999997 # Cu6
  0.4862000000000001    0.6182000000000000    0.4999999999999997 # Cu7
  0.4843000000000001    0.8685999999999999    0.4999999999999997 # Cu8
 -0.0720000000000001    0.1623000000000000    0.2123999999999996 # N1
  0.1000999999999999    0.0749999999999999    0.2102999999999997 # N2
 -0.0380000000000000    0.4220999999999999    0.2115000000000000 # N3
  0.0682000000000002    0.3148000000000001    0.2098000000000001 # N4
  0.2735000000000001    0.1984000000000001    0.0000000000000000 # N5
  0.7364000000000001    0.0526999999999999    0.0000000000000000 # N6
  0.7326999999999998    0.3006999999999999    0.0000000000000000 # N7
  0.2729000000000000    0.4515000000000001    0.0000000000000000 # N8
  1.0720000000000001    0.8377000000000000   -0.2124000000000004 # N9
  0.8998999999999999    0.9250000000000000   -0.2102999999999997 # N10
  1.0379999999999998    0.5778999999999999   -0.2115000000000000 # N11
  0.9318000000000001    0.6852000000000000   -0.2098000000000001 # N12
  0.7264999999999998    0.8016000000000001    0.0000000000000000 # N13
  0.2635999999999999    0.9472999999999998    0.0000000000000000 # N14
  0.2673000000000002    0.6992999999999999    0.0000000000000000 # N15
  0.7270999999999999    0.5484999999999998    0.0000000000000000 # N16
  1.0720000000000001    0.8377000000000000    0.2123999999999996 # N17
  0.8998999999999999    0.9250000000000000    0.2102999999999997 # N18
  1.0379999999999998    0.5778999999999999    0.2115000000000000 # N19
  0.9318000000000001    0.6852000000000000    0.2098000000000001 # N20
 -0.0720000000000001    0.1623000000000000   -0.2124000000000004 # N21
  0.1000999999999999    0.0749999999999999   -0.2102999999999997 # N22
 -0.0380000000000000    0.4220999999999999   -0.2115000000000000 # N23
  0.0682000000000002    0.3148000000000001   -0.2098000000000001 # N24
  0.4280000000000000    0.3377000000000001    0.2876000000000000 # N25
  0.6001000000000002    0.4249999999999999    0.2897000000000000 # N26
  0.4619999999999997    0.0779000000000001    0.2884999999999997 # N27
  0.5681999999999999    0.1852000000000000    0.2902000000000003 # N28
  0.7734999999999999    0.3016000000000000    0.4999999999999997 # N29
  0.2364000000000003    0.4472999999999999    0.4999999999999997 # N30
  0.2327000000000000    0.1993000000000001    0.4999999999999997 # N31
  0.7728999999999997    0.0485000000000000    0.4999999999999997 # N32
  0.5719999999999998    0.6623000000000000    0.7124000000000000 # N33
  0.3999000000000004    0.5750000000000000    0.7103000000000002 # N34
  0.5380000000000003    0.9220999999999998    0.7115000000000004 # N35
  0.4318000000000000    0.8147999999999997    0.7097999999999998 # N36
  0.2265000000000001    0.6983999999999999    0.4999999999999997 # N37
  0.7636000000000002    0.5527000000000000    0.4999999999999997 # N38
  0.7673000000000000    0.8006999999999997    0.4999999999999997 # N39
  0.2271000000000002    0.9514999999999999    0.4999999999999997 # N40
  0.5719999999999998    0.6623000000000000    0.2876000000000000 # N41
  0.3999000000000004    0.5750000000000000    0.2897000000000000 # N42
  0.5380000000000003    0.9220999999999998    0.2884999999999997 # N43
  0.4318000000000000    0.8147999999999997    0.2902000000000003 # N44
  0.4280000000000000    0.3377000000000001    0.7124000000000000 # N45
  0.6001000000000002    0.4249999999999999    0.7103000000000002 # N46
  0.4619999999999997    0.0779000000000001    0.7115000000000004 # N47
  0.5681999999999999    0.1852000000000000    0.7097999999999998 # N48
  0.1627999999999999    0.2027000000000001    0.0000000000000000 # O1
  0.3226000000000001    0.1494999999999999    0.0000000000000000 # O2
  0.3438999999999999    0.2388999999999999    0.0000000000000000 # O3
  0.8495999999999997    0.0432000000000000    0.0000000000000000 # O4
  0.6971000000000003    0.1015999999999999    0.0000000000000000 # O5
  0.6653000000000002    0.0137000000000001    0.0000000000000000 # O6
  0.7696000000000000    0.3496999999999999    0.0000000000000000 # O7
  0.6223000000000000    0.2914000000000000    0.0000000000000000 # O8
  0.8093999999999999    0.2620999999999999    0.0000000000000000 # O9
  0.2384999999999998    0.4028999999999998    0.0000000000000000 # O10
  0.1991000000000000    0.4883000000000000    0.0000000000000000 # O11
  0.3878000000000001    0.4621999999999999    0.0000000000000000 # O12
  0.8372000000000001    0.7972999999999998    0.0000000000000000 # O13
  0.6773999999999998    0.8504999999999999    0.0000000000000000 # O14
  0.6561000000000000    0.7611000000000000    0.0000000000000000 # O15
  0.1504000000000001    0.9567999999999999    0.0000000000000000 # O16
  0.3029000000000002    0.8984000000000000    0.0000000000000000 # O17
  0.3347000000000003    0.9862999999999998    0.0000000000000000 # O18
  0.2303999999999999    0.6502999999999999    0.0000000000000000 # O19
  0.3776999999999999    0.7086000000000000    0.0000000000000000 # O20
  0.1906000000000001    0.7379000000000000    0.0000000000000000 # O21
  0.7615000000000002    0.5971000000000000    0.0000000000000000 # O22
  0.8008999999999998    0.5116999999999999    0.0000000000000000 # O23
  0.6122000000000003    0.5378000000000001    0.0000000000000000 # O24
  0.6627999999999999    0.2973000000000000    0.4999999999999997 # O25
  0.8225999999999998    0.3505000000000000    0.4999999999999997 # O26
  0.8439000000000000    0.2610999999999999    0.4999999999999997 # O27
  0.3496000000000001    0.4568000000000000    0.4999999999999997 # O28
  0.1971000000000000    0.3983999999999999    0.4999999999999997 # O29
  0.1652999999999999    0.4863000000000000    0.4999999999999997 # O30
  0.2696000000000002    0.1502999999999999    0.4999999999999997 # O31
  0.1223000000000003    0.2086000000000000    0.4999999999999997 # O32
  0.3094000000000001    0.2378999999999999    0.4999999999999997 # O33
  0.7384999999999995    0.0970999999999999    0.4999999999999997 # O34
  0.6991000000000002    0.0117000000000001    0.4999999999999997 # O35
  0.8878000000000000    0.0378000000000001    0.4999999999999997 # O36
  0.3371999999999998    0.7026999999999998    0.4999999999999997 # O37
  0.1774000000000001    0.6495000000000000    0.4999999999999997 # O38
  0.1561000000000003    0.7389000000000000    0.4999999999999997 # O39
  0.6503999999999999    0.5432000000000000    0.4999999999999997 # O40
  0.8028999999999998    0.6015999999999999    0.4999999999999997 # O41
  0.8347000000000000    0.5137000000000000    0.4999999999999997 # O42
  0.7304000000000002    0.8496999999999996    0.4999999999999997 # O43
  0.8777000000000000    0.7913999999999999    0.4999999999999997 # O44
  0.6905999999999998    0.7620999999999999    0.4999999999999997 # O45
  0.2614999999999999    0.9028999999999998    0.4999999999999997 # O46
  0.3009000000000002    0.9882999999999998    0.4999999999999997 # O47
  0.1122000000000000    0.9621999999999998    0.4999999999999997 # O48
  0.0000000000000000    0.1800000000000000    0.2860000000000004 # H1
 -0.0920000000000001    0.1400000000000000    0.2860000000000004 # H2
 -0.1109999999999998    0.1800000000000000    0.1430000000000002 # H3
  0.0370000000000003    0.0630000000000001    0.2860000000000004 # H4
  0.1300000000000000    0.0999999999999999    0.2619999999999997 # H5
  0.1700000000000000    0.0490000000000000    0.1430000000000002 # H6
  0.0370000000000003    0.4360000000000000    0.2859999999999996 # H7
 -0.0679999999999997    0.3959999999999999    0.2859999999999996 # H8
 -0.0810000000000001    0.4360000000000000    0.2140000000000000 # H9
  0.0920000000000001    0.3450000000000000    0.2859999999999996 # H10
  0.0779999999999999    0.3019999999999999    0.1430000000000002 # H11
  0.1040000000000002    0.3299999999999999    0.3810000000000000 # H12
  1.0000000000000000    0.8200000000000001   -0.2860000000000004 # H13
  1.0920000000000005    0.8599999999999999   -0.2860000000000004 # H14
  1.1110000000000002    0.8200000000000001   -0.1430000000000002 # H15
  0.9630000000000002    0.9370000000000001   -0.2860000000000004 # H16
  0.8699999999999999    0.9000000000000000   -0.2619999999999997 # H17
  0.8300000000000000    0.9510000000000000   -0.1430000000000002 # H18
  0.9629999999999997    0.5640000000000001   -0.2859999999999996 # H19
  1.0680000000000001    0.6039999999999999   -0.2859999999999996 # H20
  1.0810000000000000    0.5640000000000001   -0.2140000000000000 # H21
  0.9079999999999998    0.6550000000000000   -0.2859999999999996 # H22
  0.9220000000000000    0.6979999999999998   -0.1430000000000002 # H23
  0.8960000000000002    0.6699999999999999    0.6189999999999999 # H24
  1.0000000000000000    0.8200000000000001    0.2860000000000004 # H25
  1.0920000000000005    0.8599999999999999    0.2860000000000004 # H26
  1.1110000000000002    0.8200000000000001    0.1430000000000002 # H27
  0.9630000000000002    0.9370000000000001    0.2860000000000004 # H28
  0.8699999999999999    0.9000000000000000    0.2619999999999997 # H29
  0.8300000000000000    0.9510000000000000    0.1430000000000002 # H30
  0.9629999999999997    0.5640000000000001    0.2859999999999996 # H31
  1.0680000000000001    0.6039999999999999    0.2859999999999996 # H32
  1.0810000000000000    0.5640000000000001    0.2140000000000000 # H33
  0.9079999999999998    0.6550000000000000    0.2859999999999996 # H34
  0.9220000000000000    0.6979999999999998    0.1430000000000002 # H35
  0.8960000000000002    0.6699999999999999    0.3810000000000000 # H36
  0.0000000000000000    0.1800000000000000   -0.2860000000000004 # H37
 -0.0920000000000001    0.1400000000000000   -0.2860000000000004 # H38
 -0.1109999999999998    0.1800000000000000   -0.1430000000000002 # H39
  0.0369999999999998    0.0630000000000001   -0.2860000000000004 # H40
  0.1300000000000000    0.0999999999999999   -0.2619999999999997 # H41
  0.1700000000000000    0.0490000000000000   -0.1430000000000002 # H42
  0.0370000000000003    0.4360000000000000   -0.2859999999999996 # H43
 -0.0680000000000002    0.3959999999999999   -0.2859999999999996 # H44
 -0.0810000000000001    0.4360000000000000   -0.2140000000000000 # H45
  0.0920000000000001    0.3450000000000000   -0.2859999999999996 # H46
  0.0779999999999999    0.3019999999999999   -0.1430000000000002 # H47
  0.1040000000000002    0.3300000000000002    0.6189999999999999 # H48
  0.5000000000000002    0.3200000000000000    0.2140000000000000 # H49
  0.4080000000000001    0.3600000000000000    0.2140000000000000 # H50
  0.3889999999999998    0.3200000000000000    0.3570000000000002 # H51
  0.5369999999999999    0.4370000000000000    0.2140000000000000 # H52
  0.6300000000000002    0.3999999999999999    0.2379999999999999 # H53
  0.6700000000000002    0.4510000000000000    0.3570000000000002 # H54
  0.5369999999999999    0.0640000000000000    0.2140000000000000 # H55
  0.4320000000000001    0.1039999999999999    0.2140000000000000 # H56
  0.4190000000000000    0.0640000000000000    0.2860000000000004 # H57
  0.5919999999999997    0.1550000000000001    0.2140000000000000 # H58
  0.5779999999999996    0.1980000000000001    0.3570000000000002 # H59
  0.6039999999999999    0.1699999999999999    0.1190000000000003 # H60
  0.5000000000000002    0.6799999999999999    0.7859999999999999 # H61
  0.5919999999999997    0.6400000000000000    0.7859999999999999 # H62
  0.6110000000000000    0.6799999999999999    0.6430000000000000 # H63
  0.4629999999999999    0.5629999999999998    0.7859999999999999 # H64
  0.3700000000000002    0.6000000000000000    0.7620000000000000 # H65
  0.3300000000000002    0.5490000000000000    0.6430000000000000 # H66
  0.4629999999999999    0.9360000000000001    0.7859999999999999 # H67
  0.5679999999999999    0.8960000000000000    0.7859999999999999 # H68
  0.5809999999999998    0.9360000000000001    0.7139999999999997 # H69
  0.4080000000000001    0.8450000000000001    0.7859999999999999 # H70
  0.4219999999999998    0.8020000000000000    0.6430000000000000 # H71
  0.3960000000000000    0.8299999999999998    0.8809999999999998 # H72
  0.5000000000000002    0.6799999999999999    0.2140000000000000 # H73
  0.5919999999999997    0.6400000000000000    0.2140000000000000 # H74
  0.6110000000000000    0.6799999999999999    0.3570000000000002 # H75
  0.4629999999999999    0.5629999999999998    0.2140000000000000 # H76
  0.3700000000000002    0.6000000000000000    0.2379999999999999 # H77
  0.3300000000000002    0.5490000000000000    0.3570000000000002 # H78
  0.4629999999999999    0.9360000000000001    0.2140000000000000 # H79
  0.5679999999999999    0.8960000000000000    0.2140000000000000 # H80
  0.5809999999999998    0.9360000000000001    0.2860000000000004 # H81
  0.4080000000000001    0.8450000000000001    0.2140000000000000 # H82
  0.4219999999999998    0.8020000000000000    0.3570000000000002 # H83
  0.3960000000000000    0.8299999999999998    0.1190000000000003 # H84
  0.5000000000000002    0.3200000000000000    0.7859999999999999 # H85
  0.4080000000000001    0.3600000000000000    0.7859999999999999 # H86
  0.3889999999999998    0.3200000000000000    0.6430000000000000 # H87
  0.5369999999999999    0.4370000000000000    0.7859999999999999 # H88
  0.6300000000000002    0.3999999999999999    0.7620000000000000 # H89
  0.6700000000000002    0.4510000000000000    0.6430000000000000 # H90
  0.5369999999999999    0.0640000000000000    0.7859999999999999 # H91
  0.4320000000000001    0.1039999999999999    0.7859999999999999 # H92
  0.4190000000000000    0.0640000000000000    0.7139999999999997 # H93
  0.5919999999999997    0.1550000000000001    0.7859999999999999 # H94
  0.5779999999999996    0.1980000000000001    0.6430000000000000 # H95
  0.6039999999999999    0.1699999999999999    0.8809999999999998 # H96
