$cell vectors
1.0
  8.3559960681529581    0.0000000000000000    0.0000000000000000
  0.0000000000000000   10.1859952070615201    0.0000000000000000
  0.0000000000000000    0.0000000000000000    7.0389966878564731
 16 16 16
Direct
  0.3257999999999998    0.1249999999999998    0.1250000000000000 # In1
  0.3258000000000005    0.6249999999999999    0.6250000000000000 # In2
  0.8258000000000006    0.1249999999999998    0.6250000000000000 # In3
  0.8258000000000006    0.6249999999999999    0.1250000000000000 # In4
  0.6742000000000004    0.8749999999999999    0.8749999999999998 # In5
  0.6742000000000004    0.3749999999999998    0.3749999999999999 # In6
  0.1742000000000003    0.8749999999999999    0.3749999999999999 # In7
  0.1742000000000003    0.3749999999999998    0.8749999999999998 # In8
  0.9242000000000004    0.1249999999999998    0.1250000000000000 # In9
  0.9242000000000004    0.6249999999999999    0.6250000000000000 # In10
  0.4242000000000002    0.1249999999999998    0.6250000000000000 # In11
  0.4242000000000002    0.6249999999999999    0.1250000000000000 # In12
  0.0758000000000004    0.8749999999999999    0.8749999999999998 # In13
  0.0757999999999998    0.3749999999999998    0.3749999999999999 # In14
  0.5758000000000005    0.8749999999999999    0.3749999999999999 # In15
  0.5758000000000000    0.3749999999999998    0.8749999999999998 # In16
  0.1250000000000004    0.2617999999999998    0.1250000000000000 # O1
  0.1250000000000004    0.7617999999999999    0.6250000000000000 # O2
  0.6250000000000004    0.2617999999999998    0.6250000000000000 # O3
  0.6250000000000004    0.7617999999999999    0.1250000000000000 # O4
  0.8750000000000006    0.7382000000000000    0.8749999999999998 # O5
  0.8750000000000006    0.2381999999999999    0.3749999999999999 # O6
  0.3750000000000004    0.7382000000000000    0.3749999999999999 # O7
  0.3750000000000004    0.2381999999999999    0.8749999999999998 # O8
  0.1250000000000004    0.9882000000000001    0.1250000000000000 # O9
  0.1250000000000004    0.4882000000000000    0.6250000000000000 # O10
  0.6250000000000004    0.9882000000000001    0.6250000000000000 # O11
  0.6250000000000004    0.4882000000000000    0.1250000000000000 # O12
  0.8750000000000006    0.0118000000000002    0.8749999999999998 # O13
  0.8750000000000006    0.5117999999999998    0.3749999999999999 # O14
  0.3750000000000004    0.0118000000000002    0.3749999999999999 # O15
  0.3750000000000004    0.5117999999999998    0.8749999999999998 # O16
  0.5000000000000000    0.5000000000000002    0.5000000000000000 # F1
  0.5000000000000000    0.0000000000000000    0.0000000000000000 # F2
  0.0000000000000000    0.5000000000000002    0.0000000000000000 # F3
  0.0000000000000000    0.0000000000000000    0.5000000000000000 # F4
  0.7500000000000001    0.7499999999999997    0.5000000000000000 # F5
  0.7500000000000001    0.2500000000000001    0.0000000000000000 # F6
  0.2500000000000001    0.7499999999999997    0.0000000000000000 # F7
  0.2500000000000001    0.2500000000000001    0.5000000000000000 # F8
  0.5000000000000000    0.7500000000000002    0.7499999999999999 # F9
  0.5000000000000000    0.2500000000000001    0.2500000000000000 # F10
  0.0000000000000000    0.7499999999999997    0.2500000000000000 # F11
  0.0000000000000000    0.2500000000000001    0.7499999999999999 # F12
  0.7500000000000001    0.5000000000000002    0.7499999999999999 # F13
  0.7500000000000001    0.0000000000000000    0.2500000000000000 # F14
  0.2500000000000001    0.5000000000000002    0.2500000000000000 # F15
  0.2500000000000001    0.0000000000000000    0.7499999999999999 # F16
