$cell vectors
1.0
 18.8499911302876164    0.0000000000000000    0.0000000000000000
  0.0000000000000000    6.9469967311463154    0.0000000000000000
  0.0000000000000000    0.0000000000000000    4.4759978938550322
 6 10 8
Direct
  0.6255000000000001    0.0000000000000000    0.0000000000000000 # Li1
  0.1999000000000000    0.0000000000000000    0.0000000000000000 # Li2
  0.4782000000000002    0.4999999999999999    0.0000000000000000 # Li3
  0.1254999999999999    0.0000000000000000    0.4999999999999999 # Li4
  0.6999000000000000    0.0000000000000000    0.4999999999999999 # Li5
  0.9782000000000001    0.4999999999999999    0.4999999999999999 # Li6
  0.0010999999999999    0.0000000000000000    0.0000000000000000 # Ce1
  0.7910999999999999    0.0000000000000000    0.0000000000000000 # Ce2
  0.0628000000000001    0.4999999999999999    0.0000000000000000 # Ce3
  0.8942999999999999    0.4999999999999999    0.0000000000000000 # Ce4
  0.6831000000000000    0.4999999999999999    0.0000000000000000 # Ce5
  0.5011000000000001    0.0000000000000000    0.4999999999999999 # Ce6
  0.2911000000000000    0.0000000000000000    0.4999999999999999 # Ce7
  0.5628000000000000    0.4999999999999999    0.4999999999999999 # Ce8
  0.3943000000000000    0.4999999999999999    0.4999999999999999 # Ce9
  0.1831000000000001    0.4999999999999999    0.4999999999999999 # Ce10
  0.4057999999999998    0.1791999999999997    0.0000000000000000 # Ge1
  0.2834999999999999    0.3175000000000004    0.0000000000000000 # Ge2
  0.9057999999999998    0.1792000000000004    0.4999999999999999 # Ge3
  0.7835000000000001    0.3175000000000004    0.4999999999999999 # Ge4
  0.4057999999999998    0.8208000000000003    0.0000000000000000 # Ge5
  0.2835000000000002    0.6824999999999997    0.0000000000000000 # Ge6
  0.9057999999999998    0.8208000000000003    0.4999999999999999 # Ge7
  0.7835000000000001    0.6824999999999997    0.4999999999999999 # Ge8
