$cell vectors
1.0
 10.3479951308337537    0.0000000000000000    0.0000000000000000
  0.0000000000000000   10.5219950489594840    0.0000000000000000
  0.0000000000000000    0.0000000000000000    7.9459962610750843
 8 4 4 16
Direct
  0.0000000000000000    0.5000000000000002    0.7580000000000002 # K1
  0.0000000000000000    0.0000000000000000    0.4480000000000001 # K2
  0.2468000000000001    0.2349000000000003    0.9480000000000001 # K3
  0.7532000000000000    0.7651000000000001    0.9480000000000001 # K4
  0.5000000000000000    0.0000000000000000    0.2580000000000003 # K5
  0.5000000000000000    0.5000000000000002    0.9480000000000001 # K6
  0.2531999999999999    0.7349000000000001    0.4480000000000001 # K7
  0.7468000000000000    0.2650999999999999    0.4480000000000001 # K8
  0.0000000000000000    0.0000000000000000    0.9519000000000003 # Ag1
  0.0000000000000000    0.5000000000000002    0.2248999999999999 # Ag2
  0.5000000000000000    0.5000000000000002    0.4519000000000002 # Ag3
  0.5000000000000000    0.0000000000000000    0.7249000000000004 # Ag4
  0.7272000000000000    0.7254000000000000    0.4484999999999999 # Sb1
  0.2728000000000000    0.2745999999999999    0.4484999999999999 # Sb2
  0.7727999999999999    0.2254000000000004    0.9485000000000006 # Sb3
  0.2272000000000000    0.7746000000000002    0.9485000000000006 # Sb4
  0.5500000000000002    0.7050999999999999    0.2672000000000001 # S1
  0.7103999999999998    0.5518000000000002    0.6321999999999999 # S2
  0.9238000000000002    0.7208000000000000    0.3036999999999997 # S3
  0.7201000000000001    0.9228000000000000    0.5872000000000002 # S4
  0.4500000000000003    0.2949000000000000    0.2672000000000001 # S5
  0.2896000000000001    0.4482000000000004    0.6321999999999999 # S6
  0.0762000000000000    0.2792000000000001    0.3036999999999997 # S7
  0.2799000000000003    0.0772000000000001    0.5872000000000002 # S8
  0.9500000000000002    0.2050999999999997    0.7672000000000002 # S9
  0.7896000000000001    0.0518000000000000    0.1321999999999999 # S10
  0.5761999999999999    0.2208000000000002    0.8037000000000004 # S11
  0.7799000000000004    0.4228000000000001    0.0872000000000003 # S12
  0.0500000000000003    0.7949000000000003    0.7672000000000002 # S13
  0.2103999999999999    0.9482000000000002    0.1321999999999999 # S14
  0.4238000000000000    0.7791999999999999    0.8037000000000004 # S15
  0.2201000000000003    0.5771999999999998    0.0872000000000003 # S16
