$cell vectors
1.0
  5.0859976068245558    0.0000000000000000    0.0000000000000000
  0.0000000000000000   10.2379951825933500    0.0000000000000000
  0.0000000000000000    0.0000000000000000    5.8989972242740931
 4 4 4
Direct
  0.2499999999999998    0.3275000000000001    0.0000000000000000 # Cs1
  0.2499999999999998    0.8274999999999996    0.4999999999999995 # Cs2
  0.7499999999999992    0.6724999999999999    0.0000000000000000 # Cs3
  0.7499999999999992    0.1724999999999999    0.4999999999999995 # Cs4
  0.0000000000000000    0.0000000000000000    0.0062000000000002 # Cu1
  0.0000000000000000    0.5000000000000000    0.5061999999999998 # Cu2
  0.4999999999999996    0.0000000000000000    0.0062000000000002 # Cu3
  0.4999999999999996    0.5000000000000000    0.5061999999999998 # Cu4
  0.2499999999999998    0.8670999999999999    0.0007999999999999 # O1
  0.2499999999999998    0.3670999999999999    0.5008000000000002 # O2
  0.7499999999999992    0.1329000000000001    0.0007999999999999 # O3
  0.7499999999999992    0.6328999999999999    0.5008000000000002 # O4
