$cell vectors
1.0
 10.1199952381172746    0.0000000000000000    0.0000000000000000
  0.0000000000000000    5.8099972661523083    0.0000000000000000
  0.0000000000000000    0.0000000000000000   10.9499948475676057
 4 4 32
Direct
  0.2500000000000002    0.5000000000000000    1.0434000000000001 # Br1
  0.7500000000000002    0.5000000000000000   -0.0433999999999999 # Br2
  0.7500000000000002    0.5000000000000000    0.4565999999999999 # Br3
  0.2500000000000002    0.5000000000000000    0.5434000000000002 # Br4
  1.0000000000000000    0.1081000000000003    0.2499999999999999 # Sb1
  0.0000000000000000    0.8919000000000006    0.7500000000000002 # Sb2
  0.5000000000000000    0.8919000000000006    0.2499999999999999 # Sb3
  0.5000000000000000    0.1081000000000003    0.7500000000000002 # Sb4
  1.1074000000000002    0.3476000000000005    0.1844000000000000 # F1
  0.1492000000000000    0.3812000000000003    0.9380000000000001 # F2
  1.0981000000000003    0.1258000000000002    0.3897000000000000 # F3
  1.1096000000000001   -0.1090000000000004    0.1820000000000002 # F4
 -0.1074000000000001    0.6524000000000003    0.8156000000000001 # F5
  0.8508000000000001    0.6187999999999998    0.0620000000000000 # F6
 -0.0980999999999998    0.8742000000000005    0.6103000000000001 # F7
 -0.1096000000000000    1.1090000000000002    0.8180000000000003 # F8
  0.3925999999999999    0.6524000000000003    0.1844000000000000 # F9
  0.3508000000000000    0.6188000000000007    0.9380000000000001 # F10
  0.4019000000000003    0.8742000000000005    0.3897000000000000 # F11
  0.3904000000000000    1.1090000000000002    0.1820000000000002 # F12
  0.6074000000000002    0.3476000000000005    0.8156000000000001 # F13
  0.6492000000000001    0.3812000000000003    0.0620000000000000 # F14
  0.5980999999999997    0.1258000000000002    0.6103000000000001 # F15
  0.6095999999999999   -0.1089999999999994    0.8180000000000003 # F16
  0.6074000000000002    0.6524000000000003    0.3155999999999998 # F17
  0.6492000000000001    0.6188000000000007    0.5620000000000002 # F18
  0.5980999999999997    0.8742000000000005    0.1103000000000003 # F19
  0.6095999999999999    1.1090000000000002    0.3180000000000001 # F20
  0.3925999999999999    0.3476000000000005    0.6843999999999999 # F21
  0.3508000000000000    0.3812000000000003    0.4380000000000003 # F22
  0.4019000000000003    0.1258000000000002    0.8896999999999998 # F23
  0.3904000000000000   -0.1089999999999994    0.6819999999999999 # F24
  0.8926000000000004    0.3476000000000005    0.3155999999999998 # F25
  0.8508000000000001    0.3812000000000003    0.5620000000000002 # F26
  0.9019000000000003    0.1258000000000002    0.1103000000000003 # F27
  0.8904000000000001   -0.1090000000000004    0.3180000000000001 # F28
  0.1074000000000001    0.6524000000000003    0.6843999999999999 # F29
  0.1492000000000000    0.6188000000000007    0.4380000000000003 # F30
  0.0981000000000003    0.8742000000000005    0.8896999999999998 # F31
  0.1096000000000000    1.1090000000000002    0.6819999999999999 # F32
