cell                                    
   1.00000000000000     
     3.5183598274731080    0.0000000000000000    0.0000000000000000
     0.0000000000000000    3.6304070168529856    0.0000000000000000
     0.0000000000000000    0.0000000000000000    4.3802740221553069
   4   8
Direct
  0.3644957786015373  0.3291588793038034  0.0046162797490634
  0.1355042213984628  0.8291588793038178  0.2453837202509365
  0.6355042213984625  0.6708411206961822  0.5046162797490706
  0.8644957786015375  0.1708411206962036  0.7453837202509294
  0.2446454943852583  0.1729234922155920  0.2511000671435190
  0.2623034245667540  0.6795513892502183  0.4950115114362526
  0.7553545056147417  0.8270765077843938  0.7511000671435258
  0.7376965754332457  0.3204486107497891  0.9950115114362594
  0.7446454943852583  0.3270765077843937  0.4988999328564739
  0.2553545056147488  0.6729234922155920  0.9988999328564813
  0.2376965754332460  0.1795513892502111  0.7549884885637406
  0.7623034245667543  0.8204486107497817  0.2549884885637474
 
  0.00000000E+00  0.00000000E+00  0.00000000E+00
  0.00000000E+00  0.00000000E+00  0.00000000E+00
  0.00000000E+00  0.00000000E+00  0.00000000E+00
  0.00000000E+00  0.00000000E+00  0.00000000E+00
  0.00000000E+00  0.00000000E+00  0.00000000E+00
  0.00000000E+00  0.00000000E+00  0.00000000E+00
  0.00000000E+00  0.00000000E+00  0.00000000E+00
  0.00000000E+00  0.00000000E+00  0.00000000E+00
  0.00000000E+00  0.00000000E+00  0.00000000E+00
  0.00000000E+00  0.00000000E+00  0.00000000E+00
  0.00000000E+00  0.00000000E+00  0.00000000E+00
  0.00000000E+00  0.00000000E+00  0.00000000E+00
