$cell vectors
1.0
 17.2799918690381986    0.0000000000000000    0.0000000000000000
  0.0000000000000000    9.9799953039931264    0.0000000000000000
  0.0000000000000000    0.0000000000000000   13.5499936241590007
 24 56 120
Direct
  0.1936000000000000    0.1906000000000002    0.2478000000000002 # Pb1
  0.1317000000000000    0.1377999999999998    0.7587000000000003 # Pb2
  0.0000000000000000    0.2616999999999999    0.2355999999999999 # Pb3
  0.0000000000000000    0.3932999999999998    0.7505000000000001 # Pb4
  0.6936000000000000    0.6905999999999998    0.2477999999999998 # Pb5
  0.6316999999999999    0.6377999999999999    0.7587000000000003 # Pb6
  0.5000000000000000    0.7616999999999999    0.2355999999999999 # Pb7
  0.5000000000000000    0.8932999999999998    0.7505000000000001 # Pb8
  0.8064000000000000    0.8093999999999998    0.7478000000000005 # Pb9
  0.8682999999999998    0.8621999999999997    0.2587000000000000 # Pb10
  0.0000000000000000    0.7383000000000002    0.7356000000000000 # Pb11
  0.0000000000000000    0.6066999999999998    0.2504999999999998 # Pb12
  0.3063999999999999    0.3093999999999998    0.7477999999999999 # Pb13
  0.3683000000000000    0.3622000000000002    0.2587000000000000 # Pb14
  0.5000000000000000    0.2383000000000001    0.7356000000000000 # Pb15
  0.5000000000000000    0.1067000000000003    0.2504999999999998 # Pb16
  0.8064000000000000    0.1906000000000002    0.2478000000000002 # Pb17
  0.8682999999999998    0.1377999999999998    0.7587000000000003 # Pb18
  0.3063999999999999    0.6905999999999998    0.2477999999999998 # Pb19
  0.3683000000000000    0.6377999999999999    0.7587000000000003 # Pb20
  0.1936000000000000    0.8094000000000003    0.7477999999999999 # Pb21
  0.1317000000000000    0.8621999999999997    0.2587000000000000 # Pb22
  0.6936000000000000    0.3093999999999998    0.7478000000000005 # Pb23
  0.6316999999999999    0.3622000000000002    0.2587000000000000 # Pb24
  0.1680000000000000    0.9990000000000000    0.0090000000000000 # Mn1
  0.0830000000000001    0.2509999999999999    0.0080000000000002 # Mn2
  0.1660000000000000    0.4970000000000003    0.1520000000000000 # Mn3
  0.2500000000000000    0.2509999999999999    0.0009999999999998 # Mn4
  0.0000000000000000    0.0030000000000004    0.0000000000000000 # Mn5
  0.0000000000000000    0.5040000000000000    0.0009999999999998 # Mn6
  0.0849999999999999    0.2549999999999999    0.5090000000000002 # Mn7
  0.1680000000000000    0.4970000000000003    0.3560000000000000 # Mn8
  0.6679999999999999    0.4989999999999999    0.0090000000000000 # Mn9
  0.5829999999999999    0.7509999999999999    0.0080000000000002 # Mn10
  0.6660000000000000    0.9970000000000002    0.1520000000000000 # Mn11
  0.7499999999999999    0.7509999999999999    0.0009999999999998 # Mn12
  0.5000000000000000    0.5029999999999999    0.0000000000000000 # Mn13
  0.5000000000000000    0.0040000000000000    0.0009999999999998 # Mn14
  0.5849999999999999    0.7549999999999999    0.5090000000000002 # Mn15
  0.6679999999999999    0.9969999999999996    0.3560000000000000 # Mn16
  0.8319999999999999    0.0010000000000001    0.5090000000000002 # Mn17
  0.9169999999999998    0.7490000000000002    0.5080000000000000 # Mn18
  0.8339999999999997    0.5029999999999999    0.6520000000000001 # Mn19
  0.7499999999999999    0.7490000000000002    0.5010000000000000 # Mn20
  0.0000000000000000    0.9969999999999996    0.5000000000000002 # Mn21
  0.0000000000000000    0.4960000000000002    0.5010000000000000 # Mn22
  0.9150000000000000    0.7449999999999997    0.0090000000000000 # Mn23
  0.8319999999999999    0.5029999999999999    0.8560000000000002 # Mn24
  0.3319999999999999    0.5010000000000002    0.5090000000000002 # Mn25
  0.4169999999999999    0.2490000000000001    0.5080000000000000 # Mn26
  0.3340000000000000    0.0029999999999998    0.6520000000000001 # Mn27
  0.2500000000000000    0.2490000000000001    0.5010000000000000 # Mn28
  0.5000000000000000    0.4970000000000003    0.5000000000000002 # Mn29
  0.5000000000000000    0.9959999999999997    0.5010000000000000 # Mn30
  0.4149999999999998    0.2449999999999997    0.0090000000000000 # Mn31
  0.3319999999999999    0.0029999999999998    0.8560000000000002 # Mn32
  0.8319999999999999    0.9990000000000000    0.0090000000000000 # Mn33
  0.9169999999999998    0.2509999999999999    0.0079999999999998 # Mn34
  0.8339999999999997    0.4970000000000003    0.1520000000000000 # Mn35
  0.7499999999999999    0.2509999999999999    0.0009999999999998 # Mn36
  0.9150000000000000    0.2549999999999999    0.5090000000000002 # Mn37
  0.8319999999999999    0.4970000000000003    0.3560000000000000 # Mn38
  0.3319999999999999    0.4989999999999999    0.0090000000000000 # Mn39
  0.4169999999999999    0.7509999999999999    0.0080000000000002 # Mn40
  0.3340000000000000    0.9969999999999996    0.1520000000000000 # Mn41
  0.2500000000000000    0.7509999999999999    0.0009999999999998 # Mn42
  0.4150000000000001    0.7549999999999999    0.5090000000000002 # Mn43
  0.3319999999999999    0.9969999999999996    0.3560000000000000 # Mn44
  0.1680000000000000    0.0010000000000001    0.5090000000000002 # Mn45
  0.0830000000000001    0.7490000000000002    0.5080000000000000 # Mn46
  0.1660000000000000    0.5029999999999999    0.6520000000000001 # Mn47
  0.2500000000000000    0.7490000000000002    0.5010000000000000 # Mn48
  0.0849999999999999    0.7449999999999997    0.0090000000000000 # Mn49
  0.1680000000000000    0.5029999999999999    0.8560000000000002 # Mn50
  0.6679999999999999    0.5010000000000002    0.5090000000000002 # Mn51
  0.5829999999999999    0.2490000000000001    0.5080000000000000 # Mn52
  0.6660000000000000    0.0029999999999998    0.6520000000000001 # Mn53
  0.7499999999999999    0.2490000000000001    0.5010000000000000 # Mn54
  0.5849999999999999    0.2450000000000002    0.0090000000000000 # Mn55
  0.6679999999999999    0.0030000000000004    0.8560000000000002 # Mn56
  0.2479999999999999    0.0860000000000001    0.0829999999999998 # O1
  0.2399999999999999    0.4100000000000000    0.2610000000000000 # O2
  0.0790000000000000    0.7060000000000002    0.9330000000000003 # O3
  0.2399999999999999    0.0870000000000002    0.4210000000000002 # O4
  0.0000000000000000    0.1739999999999999    0.9170000000000001 # O5
  0.0000000000000000    0.3160000000000001    0.4379999999999999 # O6
  0.0000000000000000    0.1600000000000003    0.5690000000000001 # O7
  0.0000000000000000    0.3479999999999997    0.0759999999999998 # O8
  0.3350000000000002    0.1790000000000000    0.9299999999999998 # O9
  0.0780000000000001    0.0860000000000001    0.0790000000000001 # O10
  0.0860000000000001    0.0770000000000000    0.4290000000000003 # O11
  0.0780000000000001    0.4280000000000001    0.5910000000000001 # O12
  0.0870000000000000    0.4280000000000001    0.2710000000000002 # O13
  0.3319999999999999    0.1760000000000001    0.5910000000000001 # O14
  0.1760000000000000    0.3550000000000000    0.7690000000000000 # O15
  0.1650000000000001    0.1800000000000001    0.9360000000000001 # O16
  0.1690000000000000    0.1630000000000001    0.5770000000000002 # O17
  0.7479999999999999    0.5860000000000001    0.0830000000000002 # O18
  0.7400000000000000    0.9099999999999999    0.2610000000000000 # O19
  0.5790000000000001    0.2060000000000001    0.9330000000000003 # O20
  0.7400000000000000    0.5870000000000002    0.4210000000000002 # O21
  0.5000000000000000    0.6739999999999999    0.9170000000000001 # O22
  0.5000000000000000    0.8159999999999999    0.4379999999999999 # O23
  0.5000000000000000    0.6599999999999998    0.5690000000000001 # O24
  0.5000000000000000    0.8479999999999999    0.0759999999999998 # O25
  0.8349999999999999    0.6790000000000000    0.9299999999999998 # O26
  0.5779999999999997    0.5860000000000001    0.0790000000000001 # O27
  0.5859999999999999    0.5770000000000001    0.4290000000000003 # O28
  0.5779999999999997    0.9280000000000002    0.5910000000000001 # O29
  0.5869999999999999    0.9280000000000002    0.2709999999999998 # O30
  0.8319999999999999    0.6760000000000000    0.5910000000000001 # O31
  0.6760000000000000    0.8550000000000000    0.7690000000000005 # O32
  0.6650000000000000    0.6800000000000002    0.9360000000000001 # O33
  0.6689999999999999    0.6630000000000001    0.5770000000000002 # O34
  0.7519999999999999    0.9140000000000000    0.5830000000000000 # O35
  0.7600000000000000    0.5900000000000000    0.7610000000000002 # O36
  0.9209999999999999    0.2939999999999999    0.4330000000000001 # O37
  0.7600000000000000    0.9129999999999998    0.9210000000000004 # O38
  0.0000000000000000    0.8260000000000003    0.4170000000000000 # O39
  0.0000000000000000    0.6840000000000001    0.9380000000000001 # O40
  0.0000000000000000    0.8399999999999997    0.0689999999999998 # O41
  0.0000000000000000    0.6520000000000004    0.5760000000000001 # O42
  0.6650000000000000    0.8210000000000002    0.4300000000000002 # O43
  0.9219999999999998    0.9140000000000000    0.5790000000000003 # O44
  0.9139999999999998    0.9230000000000005    0.9290000000000002 # O45
  0.9219999999999998    0.5720000000000001    0.0910000000000000 # O46
  0.9130000000000000    0.5720000000000001    0.7710000000000004 # O47
  0.6679999999999997    0.8240000000000001    0.0910000000000000 # O48
  0.8240000000000000    0.6450000000000000    0.2690000000000001 # O49
  0.8349999999999999    0.8200000000000000    0.4360000000000003 # O50
  0.8310000000000001    0.8370000000000001    0.0770000000000000 # O51
  0.2520000000000001    0.4140000000000000    0.5830000000000000 # O52
  0.2600000000000001    0.0900000000000000    0.7610000000000002 # O53
  0.4209999999999999    0.7940000000000000    0.4330000000000001 # O54
  0.2600000000000001    0.4130000000000004    0.9210000000000004 # O55
  0.5000000000000000    0.3260000000000002    0.4170000000000000 # O56
  0.5000000000000000    0.1840000000000000    0.9380000000000001 # O57
  0.5000000000000000    0.3399999999999998    0.0689999999999998 # O58
  0.5000000000000000    0.1520000000000003    0.5760000000000001 # O59
  0.1650000000000001    0.3210000000000001    0.4300000000000002 # O60
  0.4219999999999998    0.4140000000000000    0.5789999999999998 # O61
  0.4139999999999999    0.4230000000000000    0.9290000000000002 # O62
  0.4219999999999998    0.0719999999999999    0.0910000000000000 # O63
  0.4130000000000000    0.0719999999999999    0.7709999999999999 # O64
  0.1680000000000000    0.3239999999999999    0.0910000000000000 # O65
  0.3240000000000000    0.1450000000000000    0.2690000000000001 # O66
  0.3349999999999999    0.3200000000000000    0.4359999999999999 # O67
  0.3309999999999997    0.3369999999999999    0.0770000000000000 # O68
  0.7519999999999999    0.0860000000000001    0.0830000000000002 # O69
  0.7600000000000000    0.4100000000000000    0.2610000000000000 # O70
  0.9209999999999999    0.7060000000000002    0.9330000000000003 # O71
  0.7600000000000000    0.0870000000000002    0.4210000000000002 # O72
  0.6650000000000000    0.1790000000000000    0.9299999999999998 # O73
  0.9219999999999998    0.0860000000000001    0.0790000000000001 # O74
  0.9139999999999998    0.0770000000000000    0.4290000000000003 # O75
  0.9219999999999998    0.4280000000000001    0.5910000000000001 # O76
  0.9130000000000000    0.4280000000000001    0.2710000000000002 # O77
  0.6679999999999997    0.1760000000000001    0.5910000000000001 # O78
  0.8240000000000000    0.3550000000000000    0.7690000000000005 # O79
  0.8349999999999999    0.1800000000000001    0.9360000000000001 # O80
  0.8310000000000001    0.1630000000000001    0.5770000000000002 # O81
  0.2520000000000001    0.5860000000000001    0.0830000000000002 # O82
  0.2600000000000001    0.9099999999999999    0.2610000000000000 # O83
  0.4209999999999999    0.2060000000000001    0.9330000000000003 # O84
  0.2600000000000001    0.5870000000000002    0.4210000000000002 # O85
  0.1650000000000001    0.6790000000000000    0.9299999999999998 # O86
  0.4219999999999998    0.5860000000000001    0.0790000000000001 # O87
  0.4139999999999999    0.5770000000000001    0.4289999999999999 # O88
  0.4219999999999998    0.9280000000000002    0.5910000000000001 # O89
  0.4130000000000000    0.9280000000000002    0.2709999999999998 # O90
  0.1680000000000000    0.6760000000000000    0.5910000000000001 # O91
  0.3240000000000000    0.8550000000000000    0.7690000000000000 # O92
  0.3349999999999999    0.6800000000000002    0.9360000000000001 # O93
  0.3310000000000000    0.6630000000000001    0.5770000000000002 # O94
  0.2480000000000002    0.9140000000000000    0.5830000000000000 # O95
  0.2399999999999999    0.5900000000000000    0.7610000000000002 # O96
  0.0790000000000000    0.2939999999999999    0.4330000000000001 # O97
  0.2399999999999999    0.9129999999999998    0.9210000000000004 # O98
  0.3350000000000002    0.8210000000000002    0.4300000000000002 # O99
  0.0780000000000001    0.9140000000000000    0.5789999999999998 # O100
  0.0860000000000001    0.9229999999999999    0.9290000000000002 # O101
  0.0780000000000001    0.5720000000000001    0.0910000000000000 # O102
  0.0870000000000000    0.5720000000000001    0.7709999999999999 # O103
  0.3319999999999999    0.8240000000000001    0.0910000000000000 # O104
  0.1760000000000000    0.6450000000000000    0.2690000000000001 # O105
  0.1650000000000001    0.8200000000000000    0.4360000000000003 # O106
  0.1690000000000000    0.8370000000000001    0.0770000000000000 # O107
  0.7479999999999999    0.4140000000000000    0.5830000000000000 # O108
  0.7400000000000000    0.0900000000000000    0.7610000000000002 # O109
  0.5790000000000001    0.7940000000000000    0.4330000000000001 # O110
  0.7400000000000000    0.4130000000000004    0.9210000000000004 # O111
  0.8349999999999999    0.3210000000000001    0.4300000000000002 # O112
  0.5779999999999997    0.4140000000000000    0.5789999999999998 # O113
  0.5859999999999999    0.4230000000000000    0.9290000000000002 # O114
  0.5779999999999997    0.0719999999999999    0.0910000000000000 # O115
  0.5869999999999999    0.0719999999999999    0.7710000000000004 # O116
  0.8319999999999999    0.3239999999999999    0.0910000000000000 # O117
  0.6760000000000000    0.1450000000000000    0.2690000000000001 # O118
  0.6650000000000000    0.3200000000000000    0.4360000000000003 # O119
  0.6689999999999999    0.3369999999999999    0.0770000000000000 # O120
