$cell vectors
1.0
  8.2701961085254432    0.0000000000000000    0.0000000000000000
  0.0000000000000000    8.3114960890920688    0.0000000000000000
  0.0000000000000000    0.0000000000000000   20.6069903035457216
 8 8 80
Direct
  0.5000000000000003    0.2500000000000000    0.1504000000000000 # I1
  0.5000000000000003    0.7500000000000000    0.8496000000000000 # I2
  0.0000000000000000    0.2500000000000000    0.3496000000000001 # I3
  0.0000000000000000    0.7500000000000000    0.6504000000000000 # I4
  0.5000000000000003    0.7500000000000000    0.3496000000000001 # I5
  0.0000000000000000    0.2500000000000000    0.8496000000000000 # I6
  0.5000000000000003    0.2500000000000000    0.6504000000000000 # I7
  0.0000000000000000    0.7500000000000000    0.1504000000000000 # I8
  0.0000000000000000    0.2500000000000000    0.0856000000000001 # Sb1
  0.0000000000000000    0.7500000000000000    0.9144000000000002 # Sb2
  0.5000000000000003    0.2500000000000000    0.4144000000000000 # Sb3
  0.5000000000000003    0.7500000000000000    0.5856000000000000 # Sb4
  0.0000000000000000    0.7500000000000000    0.4144000000000000 # Sb5
  0.5000000000000003    0.2500000000000000    0.9144000000000002 # Sb6
  0.0000000000000000    0.2500000000000000    0.5856000000000000 # Sb7
  0.5000000000000003    0.7500000000000000    0.0856000000000001 # Sb8
  0.3785999999999999    0.1313000000000001    0.2047000000000000 # F1
  0.3490000000000001    0.4031000000000002    0.1742000000000000 # F2
  0.0000000000000000    0.2500000000000000   -0.0039999999999999 # F3
  0.0000000000000000    0.2500000000000000    0.1752000000000001 # F4
  0.2237999999999998    0.2068999999999998    0.0857000000000000 # F5
  0.0438999999999998    0.4724999999999998    0.0852999999999999 # F6
 -0.1213999999999998    0.6313000000000001    0.7047000000000001 # F7
 -0.1510000000000002    0.9031000000000002    0.6742000000000001 # F8
  0.7238000000000002    0.7069000000000005    0.5857000000000001 # F9
  0.5439000000000001    0.9725000000000005    0.5853000000000000 # F10
  0.6214000000000001    0.8687000000000006    0.7953000000000001 # F11
  0.6510000000000006    0.5969000000000004    0.8258000000000001 # F12
  0.0000000000000000    0.7500000000000007    1.0040000000000000 # F13
  0.0000000000000000    0.7500000000000000    0.8248000000000000 # F14
 -0.2237999999999998    0.7931000000000001    0.9143000000000002 # F15
 -0.0438999999999998    0.5275000000000001    0.9147000000000002 # F16
  0.1213999999999998    0.3687000000000000    0.2953000000000001 # F17
  0.1510000000000002    0.0968999999999998    0.3257999999999999 # F18
  0.5000000000000003    0.2500000000000000    0.5040000000000000 # F19
  0.5000000000000003    0.2500000000000000    0.3248000000000000 # F20
  0.2761999999999998    0.2931000000000002    0.4143000000000002 # F21
  0.4560999999999999    0.0275000000000002    0.4147000000000000 # F22
  0.6214000000000001    0.3687000000000000    0.2047000000000000 # F23
  0.6509999999999998    0.0968999999999998    0.1742000000000000 # F24
 -0.2237999999999998    0.2931000000000002    0.0857000000000000 # F25
 -0.0438999999999998    0.0275000000000002    0.0852999999999999 # F26
  0.1213999999999998    0.8687000000000006    0.7047000000000001 # F27
  0.1510000000000002    0.5969000000000004    0.6742000000000001 # F28
  0.5000000000000003    0.7500000000000000    0.4960000000000000 # F29
  0.5000000000000003    0.7500000000000000    0.6752000000000002 # F30
  0.2762000000000005    0.7931000000000001    0.5857000000000001 # F31
  0.4561000000000006    0.5275000000000001    0.5853000000000000 # F32
  0.3786000000000005    0.6313000000000001    0.7953000000000001 # F33
  0.3490000000000001    0.9031000000000002    0.8258000000000001 # F34
  0.2238000000000005    0.7069000000000005    0.9143000000000002 # F35
  0.0439000000000004    0.9725000000000005    0.9147000000000002 # F36
 -0.1213999999999998    0.1313000000000001    0.2953000000000001 # F37
 -0.1510000000000002    0.4031000000000002    0.3257999999999999 # F38
  0.7238000000000002    0.2068999999999998    0.4143000000000002 # F39
  0.5439000000000001    0.4725000000000004    0.4147000000000000 # F40
  0.3785999999999999    0.8687000000000006    0.2953000000000001 # F41
  0.3490000000000001    0.5969000000000004    0.3257999999999999 # F42
  0.0000000000000000    0.7500000000000000    0.5040000000000000 # F43
  0.0000000000000000    0.7500000000000000    0.3248000000000000 # F44
  0.2238000000000005    0.7931000000000001    0.4143000000000002 # F45
  0.0439000000000004    0.5275000000000001    0.4147000000000000 # F46
 -0.1213999999999998    0.3687000000000005    0.7953000000000001 # F47
 -0.1510000000000002    0.0969000000000004    0.8258000000000001 # F48
  0.5000000000000003    0.2500000000000000    1.0040000000000000 # F49
  0.5000000000000003    0.2500000000000000    0.8248000000000000 # F50
  0.7238000000000002    0.2931000000000002    0.9143000000000002 # F51
  0.5439000000000001    0.0275000000000002    0.9147000000000002 # F52
  0.6214000000000001    0.1313000000000001    0.7047000000000001 # F53
  0.6510000000000006    0.4031000000000002    0.6742000000000001 # F54
  0.0000000000000000    0.2500000000000000    0.4960000000000000 # F55
  0.0000000000000000    0.2500000000000000    0.6752000000000002 # F56
 -0.2237999999999998    0.2069000000000005    0.5857000000000001 # F57
 -0.0438999999999998    0.4725000000000004    0.5853000000000000 # F58
  0.1213999999999998    0.6313000000000001    0.2047000000000000 # F59
  0.1510000000000002    0.9031000000000002    0.1742000000000000 # F60
  0.5000000000000003    0.7500000000000000   -0.0039999999999999 # F61
  0.5000000000000003    0.7500000000000000    0.1752000000000001 # F62
  0.2761999999999998    0.7069000000000005    0.0857000000000000 # F63
  0.4560999999999999    0.9725000000000005    0.0852999999999999 # F64
  0.1213999999999998    0.1313000000000001    0.7953000000000001 # F65
  0.1510000000000002    0.4031000000000002    0.8258000000000001 # F66
  0.2762000000000005    0.2069000000000005    0.9143000000000002 # F67
  0.4561000000000006    0.4725000000000004    0.9147000000000002 # F68
  0.6214000000000001    0.6313000000000001    0.2953000000000001 # F69
  0.6510000000000006    0.9031000000000002    0.3257999999999999 # F70
 -0.2237999999999998    0.7069000000000005    0.4143000000000002 # F71
 -0.0438999999999998    0.9725000000000005    0.4147000000000000 # F72
 -0.1213999999999998    0.8687000000000006    0.2047000000000000 # F73
 -0.1510000000000002    0.5968999999999998    0.1742000000000000 # F74
  0.7238000000000002    0.7931000000000001    0.0857000000000000 # F75
  0.5439000000000001    0.5275000000000001    0.0852999999999999 # F76
  0.3786000000000005    0.3687000000000005    0.7047000000000001 # F77
  0.3490000000000001    0.0969000000000004    0.6742000000000001 # F78
  0.2238000000000005    0.2931000000000002    0.5857000000000001 # F79
  0.0439000000000004    0.0275000000000002    0.5853000000000000 # F80
