$cell vectors
1.0
 12.1989942598609371    0.0000000000000000    0.0000000000000000
  0.0000000000000000   13.0469938608415159    0.0000000000000000
  0.0000000000000000    0.0000000000000000   10.5369950419013616
 24 72 8 16
Direct
  0.9116000000000000    0.1944999999999999    0.1874999999999999 # P1
  0.0480999999999999    0.0148000000000000    0.2450999999999997 # P2
  0.0927000000000001    0.3408999999999999    0.2027999999999999 # P3
  0.0884000000000001    0.8055000000000002    0.8124999999999999 # P4
  0.9518999999999997    0.9851999999999997    0.7548999999999997 # P5
  0.9072999999999998    0.6590999999999998    0.7971999999999995 # P6
  0.5883999999999999    0.8054999999999998    0.6874999999999998 # P7
  0.4519000000000000    0.9851999999999997    0.7450999999999998 # P8
  0.4073000000000001    0.6590999999999998    0.7028000000000000 # P9
  0.4115999999999997    0.1944999999999999    0.3125000000000001 # P10
  0.5481000000000000    0.0148000000000000    0.2548999999999997 # P11
  0.5927000000000000    0.3408999999999999    0.2972000000000000 # P12
  0.4116000000000001    0.3054999999999998    0.8124999999999999 # P13
  0.5481000000000000    0.4852000000000000    0.7548999999999997 # P14
  0.5927000000000000    0.1591000000000002    0.7971999999999999 # P15
  0.5883999999999999    0.6944999999999998    0.1874999999999999 # P16
  0.4519000000000000    0.5148000000000000    0.2450999999999997 # P17
  0.4073000000000001    0.8409000000000000    0.2027999999999999 # P18
  0.0884000000000001    0.6944999999999998    0.3125000000000001 # P19
  0.9518999999999997    0.5148000000000000    0.2548999999999997 # P20
  0.9072999999999998    0.8409000000000000    0.2972000000000000 # P21
  0.9116000000000000    0.3054999999999998    0.6874999999999998 # P22
  0.0481000000000003    0.4852000000000000    0.7450999999999998 # P23
  0.0927000000000001    0.1591000000000002    0.7028000000000000 # P24
  0.3265999999999999    0.1844999999999999    0.4119999999999999 # O1
  0.3779999999999999    0.1980999999999998    0.1778000000000001 # O2
  0.5008999999999999    0.1071999999999998    0.3362000000000001 # O3
  0.4797999999999999    0.2948000000000000    0.3487000000000000 # O4
  0.3898999999999997    0.4492999999999998    0.1562999999999999 # O5
  0.1054000000000000    0.0546000000000000    0.3585999999999998 # O6
  0.0620999999999999    0.4596999999999999    0.2095999999999999 # O7
  0.1190000000000000    0.3027000000000001    0.3310999999999999 # O8
  0.1748999999999999    0.3292000000000000    0.1006999999999999 # O9
  0.6733999999999998    0.8155000000000001    0.5880000000000001 # O10
  0.6220000000000002    0.8019000000000002    0.8222000000000000 # O11
  0.4991000000000001    0.8927999999999998    0.6637999999999998 # O12
  0.5202000000000002    0.7051999999999998    0.6513000000000000 # O13
  0.6100999999999999    0.5507000000000000    0.8437000000000001 # O14
  0.8946000000000001    0.9453999999999997    0.6413999999999996 # O15
  0.9378999999999997    0.5402999999999999    0.7903999999999995 # O16
  0.8809999999999997    0.6972999999999998    0.6689000000000001 # O17
  0.8250999999999998    0.6708000000000001    0.8992999999999995 # O18
  0.1733999999999999    0.8155000000000001    0.9119999999999994 # O19
  0.1219999999999999    0.8018999999999997    0.6777999999999996 # O20
  0.9990999999999999    0.8928000000000003    0.8362000000000002 # O21
  0.0202000000000000    0.7052000000000002    0.8487000000000000 # O22
  0.1101000000000000    0.5507000000000000    0.6562999999999999 # O23
  0.3946000000000002    0.9454000000000001    0.8585999999999997 # O24
  0.4379000000000000    0.5402999999999999    0.7095999999999999 # O25
  0.3810000000000002    0.6973000000000004    0.8310999999999999 # O26
  0.3250999999999999    0.6708000000000001    0.6006999999999999 # O27
  0.8265999999999996    0.1844999999999999    0.0880000000000001 # O28
  0.8779999999999998    0.1980999999999998    0.3221999999999999 # O29
  0.0009000000000001    0.1071999999999998    0.1637999999999999 # O30
  0.9798000000000000    0.2948000000000000    0.1512999999999999 # O31
  0.8899000000000000    0.4492999999999998    0.3437000000000001 # O32
  0.6053999999999998    0.0546000000000000    0.1414000000000002 # O33
  0.5621000000000000    0.4596999999999999    0.2904000000000001 # O34
  0.6189999999999999    0.3027000000000001    0.1689000000000001 # O35
  0.6749000000000002    0.3292000000000000    0.3993000000000001 # O36
  0.8265999999999996    0.3155000000000001    0.5880000000000001 # O37
  0.8779999999999998    0.3018999999999998    0.8222000000000000 # O38
  0.0009000000000001    0.3928000000000003    0.6637999999999998 # O39
  0.9798000000000000    0.2052000000000001    0.6513000000000000 # O40
  0.8898999999999996    0.0506999999999999    0.8436999999999996 # O41
  0.6053999999999998    0.4454000000000001    0.6413999999999996 # O42
  0.5621000000000000    0.0403000000000002    0.7903999999999995 # O43
  0.6189999999999999    0.1972999999999999    0.6689000000000001 # O44
  0.6749000000000002    0.1708000000000001    0.8992999999999995 # O45
  0.1733999999999999    0.6845000000000000    0.4119999999999999 # O46
  0.1219999999999999    0.6980999999999999    0.1778000000000001 # O47
  0.9990999999999999    0.6071999999999999    0.3362000000000001 # O48
  0.0202000000000000    0.7948000000000001    0.3487000000000000 # O49
  0.1101000000000000    0.9492999999999999    0.1562999999999999 # O50
  0.3945999999999998    0.5546000000000000    0.3585999999999998 # O51
  0.4379000000000000    0.9596999999999999    0.2095999999999999 # O52
  0.3809999999999998    0.8026999999999997    0.3310999999999999 # O53
  0.3250999999999999    0.8291999999999997    0.1006999999999999 # O54
  0.6733999999999998    0.6845000000000000    0.0880000000000001 # O55
  0.6220000000000002    0.6980999999999999    0.3221999999999999 # O56
  0.4991000000000001    0.6071999999999999    0.1637999999999999 # O57
  0.5202000000000002    0.7948000000000001    0.1512999999999999 # O58
  0.6100999999999999    0.9492999999999999    0.3437000000000001 # O59
  0.8946000000000001    0.5546000000000000    0.1414000000000002 # O60
  0.9378999999999997    0.9596999999999999    0.2904000000000001 # O61
  0.8809999999999997    0.8026999999999997    0.1689000000000001 # O62
  0.8250999999999998    0.8291999999999997    0.3993000000000001 # O63
  0.3265999999999999    0.3155000000000001    0.9120000000000000 # O64
  0.3779999999999999    0.3018999999999998    0.6778000000000001 # O65
  0.5008999999999999    0.3928000000000003    0.8362000000000002 # O66
  0.4797999999999999    0.2052000000000001    0.8487000000000000 # O67
  0.3898999999999997    0.0506999999999999    0.6562999999999999 # O68
  0.1054000000000000    0.4454000000000001    0.8585999999999997 # O69
  0.0620999999999999    0.0403000000000002    0.7095999999999999 # O70
  0.1190000000000000    0.1972999999999999    0.8310999999999999 # O71
  0.1748999999999999    0.1708000000000001    0.6006999999999999 # O72
  0.2576000000000001    0.4279000000000001    0.5055000000000001 # N1
  0.7423999999999999    0.5720999999999999    0.4944999999999999 # N2
  0.2424000000000001    0.5720999999999999    0.0055000000000001 # N3
  0.7575999999999999    0.4279000000000001    0.9944999999999999 # N4
  0.7575999999999999    0.0720999999999999    0.4944999999999999 # N5
  0.2424000000000001    0.9278999999999998    0.5055000000000001 # N6
  0.7423999999999999    0.9278999999999998    0.9944999999999999 # N7
  0.2576000000000001    0.0720999999999999    0.0055000000000001 # N8
  0.1649000000000000    0.1800000000000000    0.4157000000000001 # Li1
  0.3346000000000001    0.3240999999999997    0.0944999999999998 # Li2
  0.8351000000000000    0.8200000000000001    0.5843000000000000 # Li3
  0.6653999999999999    0.6758999999999999    0.9054999999999994 # Li4
  0.3351000000000002    0.8200000000000001    0.9157000000000002 # Li5
  0.1654000000000001    0.6758999999999999    0.5944999999999998 # Li6
  0.6649000000000003    0.1800000000000000    0.0843000000000000 # Li7
  0.8346000000000000    0.3241000000000002    0.4055000000000001 # Li8
  0.6649000000000003    0.3200000000000000    0.5843000000000000 # Li9
  0.8346000000000000    0.1758999999999999    0.9054999999999994 # Li10
  0.3350999999999999    0.6799999999999996    0.4157000000000001 # Li11
  0.1654000000000001    0.8240999999999997    0.0944999999999998 # Li12
  0.8351000000000000    0.6799999999999996    0.0843000000000000 # Li13
  0.6653999999999999    0.8240999999999997    0.4055000000000001 # Li14
  0.1649000000000000    0.3200000000000000    0.9157000000000002 # Li15
  0.3346000000000001    0.1758999999999999    0.5944999999999998 # Li16
