$cell vectors
1.0
 11.2199947205213277    0.0000000000000000    0.0000000000000000
  0.0000000000000000    7.9149962756618821    0.0000000000000000
  0.0000000000000000    0.0000000000000000    3.9599981366545887
 4 2 10
Direct
  0.3310000000000001    0.0742999999999999    0.5000000000000000 # La1
  0.6690000000000004    0.9257000000000002    0.5000000000000000 # La2
  0.8310000000000002    0.4257000000000002    0.5000000000000000 # La3
  0.1689999999999999    0.5742999999999999    0.5000000000000000 # La4
  0.0000000000000000    0.0000000000000000    0.0000000000000000 # Sn1
  0.4999999999999999    0.5000000000000000    0.0000000000000000 # Sn2
  0.0000000000000000    0.5000000000000000    0.0000000000000000 # S1
  0.2984000000000001    0.3571000000000001    0.0000000000000000 # S2
  0.0693999999999999    0.1869000000000002    0.5000000000000000 # S3
  0.7015999999999999    0.6429000000000000    0.0000000000000000 # S4
  0.9306000000000002    0.8130999999999999    0.5000000000000000 # S5
  0.4999999999999999    0.0000000000000000    0.0000000000000000 # S6
  0.7984000000000000    0.1428999999999999    0.0000000000000000 # S7
  0.5693999999999998    0.3130999999999998    0.5000000000000000 # S8
  0.2015999999999999    0.8571000000000003    0.0000000000000000 # S9
  0.4306000000000001    0.6869000000000002    0.5000000000000000 # S10
