$cell vectors
1.0
 11.4199946264129721    0.0000000000000000    0.0000000000000000
  0.0000000000000000    5.0899976049423854    0.0000000000000000
  0.0000000000000000    0.0000000000000000   21.9499896716081295
 24 16 56
Direct
  0.9866000000000003    0.0000000000000000    0.0000000000000000 # Ca1
  0.2859999999999999    0.0030000000000000    0.2499999999999999 # Ca2
  0.0106999999999999    0.0049999999999996    0.1679000000000000 # Ca3
  0.2176999999999999    0.5010000000000003    0.1040000000000001 # Ca4
  0.4866000000000003    0.4999999999999999    0.4999999999999998 # Ca5
  0.7860000000000004    0.5029999999999999    0.7499999999999998 # Ca6
  0.5107000000000003    0.5050000000000007    0.6678999999999998 # Ca7
  0.7177000000000003    0.0010000000000003    0.6039999999999999 # Ca8
  0.2860000000000004    0.9970000000000000    0.7499999999999998 # Ca9
  0.0107000000000003    0.9950000000000003    0.8321000000000001 # Ca10
  0.2176999999999999    0.4990000000000006    0.8959999999999999 # Ca11
  0.7860000000000004    0.4970000000000001    0.2499999999999999 # Ca12
  0.5107000000000003    0.4950000000000003    0.3321000000000000 # Ca13
  0.7177000000000003    0.9989999999999998    0.3960000000000000 # Ca14
  0.9866000000000003    0.0000000000000000    0.4999999999999998 # Ca15
  0.0106999999999999    0.0050000000000007    0.3321000000000000 # Ca16
  0.2176999999999999    0.5010000000000003    0.3960000000000000 # Ca17
  0.4866000000000003    0.4999999999999999    0.0000000000000000 # Ca18
  0.5107000000000003    0.5050000000000007    0.8321000000000001 # Ca19
  0.7177000000000003    0.0010000000000003    0.8959999999999999 # Ca20
  0.0107000000000003    0.9950000000000003    0.6678999999999998 # Ca21
  0.2176999999999999    0.4990000000000006    0.6039999999999999 # Ca22
  0.5107000000000003    0.4950000000000003    0.1679000000000000 # Ca23
  0.7177000000000003    0.9989999999999998    0.1040000000000001 # Ca24
  0.0970000000000002    0.4259999999999996    0.2499999999999999 # Si1
  0.4079999999999999    0.9400000000000004    0.0996999999999999 # Si2
  0.2399999999999999    0.9999999999999999    0.0000000000000000 # Si3
  0.5970000000000002    0.9260000000000006    0.7499999999999998 # Si4
  0.9079999999999999    0.4400000000000003    0.5997000000000000 # Si5
  0.7399999999999998    0.4999999999999999    0.4999999999999998 # Si6
  0.0970000000000002    0.5740000000000002    0.7499999999999998 # Si7
  0.4079999999999999    1.0599999999999994   -0.0996999999999999 # Si8
  0.5970000000000002    0.0740000000000003    0.2499999999999999 # Si9
  0.9079999999999999    0.5599999999999997    0.4003000000000000 # Si10
  0.4079999999999999    0.9400000000000004    0.4003000000000000 # Si11
  0.2400000000000004    0.9999999999999999    0.4999999999999998 # Si12
  0.9079999999999999    0.4400000000000003   -0.0996999999999999 # Si13
  0.7399999999999998    0.4999999999999999    0.0000000000000000 # Si14
  0.4079999999999999    1.0600000000000005    0.5997000000000000 # Si15
  0.9079999999999999    0.5599999999999997    0.0996999999999999 # Si16
  0.1639999999999998    0.2970000000000004    0.1918999999999999 # O1
 -0.0329999999999999    0.2930000000000001    0.2499999999999999 # O2
  0.0980000000000001    0.7589999999999999    0.2499999999999999 # O3
  0.3460000000000000    0.7930000000000001    0.1584000000000000 # O4
  1.0350000000000001    0.7069999999999999    0.0919000000000001 # O5
  0.3340000000000002    0.8020000000000000    0.0402000000000001 # O6
  0.4040000000000002    1.2549999999999994    0.0953999999999999 # O7
  0.1600000000000001    1.1789999999999998    0.0411999999999999 # O8
  0.6640000000000004    0.7970000000000004    0.6919000000000000 # O9
  0.4670000000000001    0.7930000000000001    0.7499999999999998 # O10
  0.5980000000000000    1.2589999999999999    0.7499999999999998 # O11
  0.8459999999999999    0.2930000000000001    0.6583999999999999 # O12
  0.5350000000000001    1.2069999999999999    0.5919000000000000 # O13
  0.8340000000000003    0.3020000000000000    0.5401999999999999 # O14
  0.9040000000000001    0.7549999999999997    0.5954000000000000 # O15
  0.6600000000000000    0.6790000000000007    0.5411999999999998 # O16
  0.1640000000000003    0.7030000000000006    0.8081000000000000 # O17
 -0.0329999999999999    0.7069999999999999    0.7499999999999998 # O18
  0.0980000000000001    0.2410000000000000    0.7499999999999998 # O19
  0.3460000000000000    1.2069999999999999   -0.1584000000000000 # O20
  1.0350000000000001    0.2930000000000001   -0.0919000000000001 # O21
  0.3340000000000002    1.1979999999999997   -0.0402000000000001 # O22
  0.4040000000000002    0.7449999999999993   -0.0953999999999999 # O23
  0.1600000000000001    0.8210000000000003   -0.0411999999999999 # O24
  0.6640000000000004    0.2030000000000006    0.3081000000000000 # O25
  0.4670000000000001    0.2069999999999999    0.2499999999999999 # O26
  0.5980000000000000   -0.2590000000000000    0.2499999999999999 # O27
  0.8459999999999999    0.7069999999999999    0.3416000000000000 # O28
  0.5350000000000001    0.7930000000000001    0.4081000000000000 # O29
  0.8340000000000003    0.6979999999999998    0.4597999999999999 # O30
  0.9040000000000001    0.2450000000000004    0.4045999999999998 # O31
  0.6600000000000000    0.3210000000000003    0.4587999999999999 # O32
  0.1640000000000003    0.2970000000000004    0.3081000000000000 # O33
  0.3460000000000000    0.7930000000000001    0.3416000000000000 # O34
  1.0350000000000001    0.7069999999999999    0.4081000000000000 # O35
  0.3340000000000002    0.8020000000000000    0.4597999999999999 # O36
  0.4040000000000002    1.2549999999999994    0.4045999999999998 # O37
  0.1600000000000001    1.1789999999999998    0.4587999999999999 # O38
  0.6640000000000004    0.7970000000000004    0.8081000000000000 # O39
  0.8459999999999999    0.2930000000000001   -0.1584000000000000 # O40
  0.5350000000000001    1.2069999999999999   -0.0919000000000001 # O41
  0.8340000000000003    0.3020000000000000   -0.0402000000000001 # O42
  0.9040000000000001    0.7549999999999997   -0.0953999999999999 # O43
  0.6600000000000000    0.6789999999999997   -0.0411999999999999 # O44
  0.1640000000000003    0.7030000000000006    0.6919000000000000 # O45
  0.3460000000000000    1.2069999999999999    0.6583999999999999 # O46
  1.0350000000000001    0.2930000000000001    0.5919000000000000 # O47
  0.3340000000000002    1.1979999999999997    0.5401999999999999 # O48
  0.4040000000000002    0.7450000000000003    0.5954000000000000 # O49
  0.1600000000000001    0.8210000000000003    0.5411999999999998 # O50
  0.6640000000000004    0.2030000000000006    0.1918999999999999 # O51
  0.8459999999999999    0.7069999999999999    0.1584000000000000 # O52
  0.5350000000000001    0.7930000000000001    0.0919000000000001 # O53
  0.8340000000000003    0.6979999999999998    0.0402000000000001 # O54
  0.9040000000000001    0.2450000000000004    0.0953999999999999 # O55
  0.6600000000000000    0.3210000000000003    0.0411999999999999 # O56
