$cell vectors
1.0
  5.1829975611820007    0.0000000000000000    0.0000000000000000
  0.0000000000000000    4.8929976976391139    0.0000000000000000
  0.0000000000000000    0.0000000000000000    8.4909960046298245
 4 4 12
Direct
  0.2500000000000000    0.0000000000000000    0.7299999999999994 # Li1
  0.7500000000000000    0.0000000000000000    0.2699999999999998 # Li2
  0.2500000000000000    0.5000000000000006    0.7699999999999997 # Li3
  0.7500000000000000    0.5000000000000006    0.2300000000000001 # Li4
  0.2500000000000000    0.0000000000000000    0.0971000000000003 # Sb1
  0.7500000000000000    0.0000000000000000    0.9028999999999996 # Sb2
  0.2500000000000000    0.5000000000000006    0.4028999999999996 # Sb3
  0.7500000000000000    0.5000000000000006    0.5970999999999995 # Sb4
  0.4439999999999995    0.2500000000000002    0.2499999999999999 # O1
  0.9069999999999993    0.2089999999999995    0.0809999999999997 # O2
  0.5560000000000004    0.7499999999999997    0.7499999999999999 # O3
  0.0930000000000006    0.7910000000000004    0.9189999999999996 # O4
  0.0560000000000005    0.7499999999999997    0.2499999999999999 # O5
  0.5929999999999995    0.7910000000000004    0.0809999999999997 # O6
  0.9439999999999996    0.2500000000000002    0.7499999999999999 # O7
  0.4070000000000004    0.2090000000000006    0.9189999999999996 # O8
  0.9069999999999993    0.2909999999999999    0.4189999999999996 # O9
  0.0929999999999996    0.7090000000000001    0.5809999999999996 # O10
  0.5929999999999995    0.7090000000000001    0.4189999999999996 # O11
  0.4070000000000004    0.2909999999999999    0.5809999999999996 # O12
