$cell vectors
1.0
 10.8899948758001148    0.0000000000000000    0.0000000000000000
  0.0000000000000000   12.0299943393824957    0.0000000000000000
  0.0000000000000000    0.0000000000000000    5.9199972143927173
 8 16 32
Direct
  0.2540000000000001    0.0000000000000000    0.5255000000000001 # W1
  0.0000000000000000    0.8474999999999999    0.4999999999999996 # W2
  0.0000000000000000    0.1379999999999998    0.4999999999999996 # W3
  0.7459999999999999    0.0000000000000000    0.4745000000000000 # W4
  0.7539999999999998    0.5000000000000002    0.9744999999999996 # W5
  0.5000000000000001    0.3475000000000001    0.0000000000000000 # W6
  0.5000000000000001    0.6380000000000000    0.0000000000000000 # W7
  0.2459999999999999    0.4999999999999998    0.0255000000000005 # W8
  0.7508999999999999    0.1710999999999999    0.9876999999999994 # Ag1
  0.2349000000000000    0.8175999999999995    0.0091999999999998 # Ag2
  0.0000000000000000    0.9871999999999996    0.0000000000000000 # Ag3
  0.0000000000000000    0.6531000000000001    0.9999999999999991 # Ag4
  0.0000000000000000    0.3147999999999999    0.0000000000000000 # Ag5
  0.0000000000000000    0.5091999999999997    0.4999999999999996 # Ag6
  0.2491000000000001    0.1710999999999999    0.0122999999999997 # Ag7
  0.7651000000000001    0.8175999999999995    0.9907999999999995 # Ag8
  0.2508999999999999    0.6710999999999997    0.5122999999999992 # Ag9
  0.7349000000000001    0.3176000000000003    0.4907999999999998 # Ag10
  0.5000000000000001    0.4872000000000001    0.4999999999999996 # Ag11
  0.5000000000000001    0.1530999999999999    0.4999999999999996 # Ag12
  0.5000000000000001    0.8147999999999999    0.4999999999999996 # Ag13
  0.5000000000000001    0.0092000000000000    0.0000000000000000 # Ag14
  0.7491000000000002    0.6710999999999997    0.4876999999999999 # Ag15
  0.2651000000000001    0.3176000000000003    0.5092000000000003 # Ag16
  0.3680000000000001    0.6119999999999998    0.1950000000000000 # O1
  0.3680000000000001    0.3779999999999999    0.1880000000000001 # O2
  0.4190000000000003    0.7350000000000000    0.8149999999999998 # O3
  0.4249999999999999    0.2630000000000000    0.7919999999999994 # O4
  0.1620000000000003    0.4940000000000000    0.2820000000000001 # O5
  0.4139999999999998    0.4960000000000001    0.8469999999999996 # O6
  0.1890000000000002    0.6119999999999998    0.8569999999999995 # O7
  0.1930000000000003    0.3790000000000001    0.8999999999999994 # O8
  0.6320000000000000    0.6119999999999998    0.8049999999999993 # O9
  0.6320000000000000    0.3779999999999999    0.8119999999999999 # O10
  0.5809999999999998    0.7350000000000000    0.1850000000000002 # O11
  0.5749999999999998    0.2630000000000000    0.2079999999999997 # O12
  0.8379999999999999    0.4940000000000000    0.7179999999999999 # O13
  0.5860000000000003    0.4960000000000001    0.1530000000000003 # O14
  0.8109999999999999    0.6119999999999998    0.1429999999999997 # O15
  0.8069999999999999    0.3790000000000001    0.0999999999999997 # O16
  0.8679999999999998    0.1120000000000001    0.3049999999999995 # O17
  0.8679999999999998    0.8779999999999997    0.3119999999999995 # O18
  0.9190000000000002    0.2349999999999997    0.6849999999999998 # O19
  0.9249999999999998    0.7629999999999999    0.7080000000000001 # O20
  0.6620000000000003    0.9939999999999999    0.2179999999999995 # O21
  0.9139999999999999    0.9959999999999999    0.6530000000000000 # O22
  0.6890000000000003    0.1120000000000001    0.6430000000000001 # O23
  0.6930000000000003    0.8790000000000000    0.5999999999999993 # O24
  0.1320000000000000    0.1120000000000001    0.6949999999999996 # O25
  0.1320000000000000    0.8779999999999997    0.6879999999999996 # O26
  0.0809999999999999    0.2349999999999997    0.3150000000000003 # O27
  0.0750000000000002    0.7629999999999999    0.2919999999999999 # O28
  0.3379999999999999    0.9939999999999999    0.7819999999999996 # O29
  0.0860000000000002    0.9959999999999999    0.3470000000000001 # O30
  0.3109999999999999    0.1120000000000001    0.3569999999999999 # O31
  0.3070000000000002    0.8790000000000000    0.3999999999999999 # O32
