$cell vectors
1.0
 10.1739952127080233    0.0000000000000000    0.0000000000000000
  0.0000000000000000   10.1749952122374818    0.0000000000000000
  0.0000000000000000    0.0000000000000000   10.1739952127080233
 24 2 40
Direct
  0.1821000000000001    0.3242000000000002    0.4841999999999999 # Bi1
  0.3237000000000002    0.4842999999999998    0.1818000000000001 # Bi2
  0.4839999999999999    0.1824000000000002    0.3239000000000001 # Bi3
  0.6820999999999998    0.8242000000000004    0.9841999999999996 # Bi4
  0.8236999999999999    0.9842999999999995    0.6817999999999999 # Bi5
  0.9839999999999995    0.6823999999999999    0.8239000000000000 # Bi6
  0.8179000000000000    0.6757999999999997    0.4841999999999999 # Bi7
  0.6762999999999999    0.5157000000000002    0.1818000000000001 # Bi8
  0.5160000000000002    0.8175999999999999    0.3239000000000001 # Bi9
  0.3178999999999997    0.1758000000000000    0.9841999999999996 # Bi10
  0.1763000000000002    0.0156999999999999    0.6817999999999999 # Bi11
  0.0159999999999999    0.3176000000000000    0.8239000000000000 # Bi12
  0.1821000000000001    0.6757999999999997    0.5157999999999997 # Bi13
  0.3237000000000002    0.5157000000000002    0.8181999999999999 # Bi14
  0.4839999999999999    0.8175999999999999    0.6760999999999999 # Bi15
  0.6820999999999998    0.1758000000000000    0.0157999999999999 # Bi16
  0.8236999999999999    0.0156999999999999    0.3182000000000001 # Bi17
  0.9839999999999995    0.3176000000000000    0.1761000000000001 # Bi18
  0.8179000000000000    0.3242000000000002    0.5157999999999997 # Bi19
  0.6762999999999999    0.4843000000000003    0.8181999999999999 # Bi20
  0.5159999999999997    0.1824000000000002    0.6760999999999999 # Bi21
  0.3178999999999997    0.8241999999999999    0.0157999999999999 # Bi22
  0.1763000000000002    0.9842999999999995    0.3182000000000001 # Bi23
  0.0159999999999999    0.6823999999999999    0.1761000000000001 # Bi24
  0.0000000000000000    0.0000000000000000    0.0000000000000000 # Ga1
  0.4999999999999998    0.4999999999999997    0.4999999999999998 # Ga2
  0.2449999999999999    0.3640000000000000    0.0100000000000000 # O1
  0.4879999999999999    0.7469999999999999    0.1360000000000001 # O2
  0.3080000000000002    0.3030000000000002    0.3069999999999997 # O3
  0.0979999999999999    0.0939999999999999    0.1010000000000001 # O4
  0.3700000000000001    0.0110000000000002    0.2459999999999998 # O5
  0.7450000000000002    0.8639999999999999    0.5099999999999997 # O6
  0.9879999999999997    0.2469999999999997    0.6359999999999998 # O7
  0.8079999999999999    0.8029999999999998    0.8069999999999995 # O8
  0.5980000000000001    0.5939999999999996    0.6009999999999999 # O9
  0.8699999999999999    0.5110000000000000    0.7460000000000000 # O10
  0.7549999999999996    0.6360000000000000    0.0100000000000000 # O11
  0.5120000000000001    0.2530000000000001    0.1360000000000001 # O12
  0.6919999999999998    0.6969999999999998    0.3069999999999997 # O13
 -0.0979999999999999   -0.0939999999999999    0.1010000000000001 # O14
  0.6300000000000000    0.9889999999999998    0.2459999999999998 # O15
  0.2549999999999998    0.1360000000000003    0.5099999999999997 # O16
  0.0120000000000003    0.7529999999999998    0.6359999999999998 # O17
  0.1920000000000001    0.1970000000000001    0.8069999999999995 # O18
  0.4019999999999999    0.4060000000000003    0.6009999999999999 # O19
  0.1300000000000002    0.4890000000000000    0.7460000000000000 # O20
  0.2449999999999999    0.6360000000000000    0.9899999999999994 # O21
  0.4879999999999999    0.2530000000000001    0.8639999999999999 # O22
  0.3080000000000002    0.6969999999999998    0.6929999999999997 # O23
  0.0979999999999999   -0.0939999999999999   -0.1010000000000001 # O24
  0.3700000000000001    0.9889999999999998    0.7539999999999997 # O25
  0.7449999999999997    0.1360000000000003    0.4899999999999997 # O26
  0.9879999999999997    0.7529999999999998    0.3640000000000002 # O27
  0.8079999999999999    0.1970000000000001    0.1930000000000000 # O28
  0.5980000000000001    0.4060000000000003    0.3989999999999996 # O29
  0.8699999999999999    0.4890000000000000    0.2540000000000000 # O30
  0.7549999999999996    0.3640000000000000    0.9899999999999994 # O31
  0.5120000000000001    0.7469999999999999    0.8639999999999999 # O32
  0.6919999999999998    0.3030000000000002    0.6929999999999997 # O33
 -0.0979999999999999    0.0939999999999999   -0.1010000000000001 # O34
  0.6300000000000000    0.0110000000000002    0.7539999999999997 # O35
  0.2549999999999998    0.8639999999999999    0.4899999999999997 # O36
  0.0119999999999998    0.2469999999999997    0.3640000000000002 # O37
  0.1920000000000001    0.8029999999999998    0.1930000000000000 # O38
  0.4019999999999999    0.5939999999999996    0.3989999999999996 # O39
  0.1300000000000002    0.5110000000000000    0.2540000000000000 # O40
