$cell vectors
1.0
  4.6539978100985975    0.0000000000000000    0.0000000000000000
  0.0000000000000000    6.9359967363222745    0.0000000000000000
  0.0000000000000000    0.0000000000000000    8.8789958220596148
 4 2 14
Direct
  0.0000000000000000    0.1782999999999999    0.1991000000000000 # Te1
  0.5000000000000006    0.8217000000000001    0.3008999999999999 # Te2
  0.0000000000000000    0.1782999999999999    0.8008999999999998 # Te3
  0.5000000000000006    0.8217000000000001    0.6990999999999999 # Te4
  0.4236000000000004    0.4808999999999998    0.0000000000000000 # S1
  0.9235999999999999    0.5191000000000002    0.5000000000000000 # S2
  0.6570000000000007    0.3380000000000006    0.0000000000000000 # O1
  0.2479999999999994    0.4470000000000005    0.1379999999999999 # O2
  0.0880000000000006    0.0910000000000000    0.0000000000000000 # O3
  0.6350000000000003    0.0910000000000000    0.2629999999999997 # O4
  0.0289999999999997    0.3179999999999997    0.5000000000000000 # O5
  0.1569999999999999    0.6620000000000003    0.5000000000000000 # O6
  0.7480000000000002    0.5530000000000004    0.3620000000000001 # O7
  0.5880000000000001    0.9090000000000001    0.5000000000000000 # O8
  0.1349999999999998    0.9090000000000001    0.2370000000000003 # O9
  0.5290000000000004    0.6820000000000004    0.0000000000000000 # O10
  0.2480000000000006    0.4470000000000005    0.8620000000000001 # O11
  0.6350000000000003    0.0910000000000000    0.7369999999999997 # O12
  0.7480000000000002    0.5530000000000004    0.6379999999999998 # O13
  0.1349999999999998    0.9090000000000001    0.7629999999999997 # O14
