$cell vectors
1.0
  4.9109976891693607    0.0000000000000000    0.0000000000000000
  0.0000000000000000   12.4639941351673649    0.0000000000000000
  0.0000000000000000    0.0000000000000000    5.4119974534279329
 8 12
Direct
  0.0414000000000001    0.1274000000000001    0.1783999999999999 # Sb1
  0.9585999999999999    0.8726000000000000    0.8216000000000000 # Sb2
  0.4586000000000004    0.3725999999999999    0.1783999999999999 # Sb3
  0.5414000000000008    0.6274000000000001    0.8216000000000000 # Sb4
  0.5414000000000008    0.8726000000000000    0.3215999999999996 # Sb5
  0.4586000000000004    0.1274000000000001    0.6784000000000006 # Sb6
  0.9585999999999999    0.6274000000000001    0.3216000000000007 # Sb7
  0.0414000000000001    0.3725999999999999    0.6784000000000006 # Sb8
  0.2499999999999998    0.2500000000000002    0.0228999999999999 # O1
  0.1520000000000005    0.0591000000000000    0.8560000000000004 # O2
  0.7500000000000002    0.7500000000000002    0.9771000000000004 # O3
  0.8480000000000008    0.9409000000000000    0.1440000000000005 # O4
  0.3480000000000001    0.4408999999999999    0.8560000000000004 # O5
  0.6520000000000000    0.5591000000000000    0.1440000000000005 # O6
  0.7500000000000002    0.7500000000000002    0.4771000000000007 # O7
  0.6520000000000000    0.9409000000000000    0.6440000000000001 # O8
  0.2499999999999998    0.2500000000000002    0.5229000000000005 # O9
  0.3480000000000001    0.0591000000000000    0.3560000000000000 # O10
  0.8480000000000008    0.5591000000000000    0.6440000000000001 # O11
  0.1520000000000005    0.4408999999999999    0.3560000000000000 # O12
