$cell vectors
1.0
  8.6489959302842170    0.0000000000000000    0.0000000000000000
  0.0000000000000000    8.1759961528504821    0.0000000000000000
  0.0000000000000000    0.0000000000000000    7.4452964966753532
 2 6 26
Direct
  0.6959000000000006    0.4999999999999999    0.1041000000000000 # Rb1
  0.1958999999999999    0.4999999999999999    0.8958999999999999 # Rb2
  0.0000000000000000    0.0000000000000000    0.1081999999999998 # Th1
  0.8343000000000005    0.2528000000000000    0.6020000000000000 # Th2
  0.5000000000000000    0.0000000000000000    0.8918000000000001 # Th3
  0.3343000000000003    0.7472000000000000    0.3979999999999999 # Th4
  0.3343000000000003    0.2528000000000000    0.3979999999999999 # Th5
  0.8343000000000005    0.7472000000000000    0.6020000000000000 # Th6
  0.8480000000000003    0.4999999999999999    0.4530000000000001 # F1
  0.5960000000000005    0.3020000000000002    0.4520000000000000 # F2
  0.1440000000000000    0.7439999999999998    0.1729999999999998 # F3
  0.4570000000000001    0.8030000000000000    0.1110000000000000 # F4
  0.8650000000000005    0.1760000000000003    0.3039999999999997 # F5
  0.3660000000000000    0.4999999999999999    0.2299999999999999 # F6
  0.7370000000000004    0.0000000000000000    0.0370000000000003 # F7
  0.1790000000000001    0.0000000000000000    0.3639999999999997 # F8
  0.4600000000000003    0.0000000000000000    0.4089999999999998 # F9
  0.3480000000000002    0.4999999999999999    0.5469999999999998 # F10
  0.0960000000000004    0.6979999999999995    0.5479999999999999 # F11
  0.6440000000000001    0.2560000000000001    0.8270000000000002 # F12
  0.9570000000000002    0.1969999999999998    0.8889999999999998 # F13
  0.3649999999999999    0.8239999999999996    0.6959999999999996 # F14
  0.8660000000000001    0.4999999999999999    0.7700000000000000 # F15
  0.2370000000000002    0.0000000000000000    0.9629999999999996 # F16
  0.6790000000000002    0.0000000000000000    0.6359999999999996 # F17
  0.9600000000000004    0.0000000000000000    0.5909999999999995 # F18
  0.0960000000000004    0.3020000000000002    0.5479999999999999 # F19
  0.6440000000000001    0.7439999999999998    0.8270000000000002 # F20
  0.9570000000000002    0.8030000000000000    0.8889999999999998 # F21
  0.3649999999999999    0.1760000000000003    0.6959999999999996 # F22
  0.5960000000000005    0.6979999999999995    0.4520000000000000 # F23
  0.1440000000000000    0.2560000000000001    0.1729999999999998 # F24
  0.4570000000000001    0.1969999999999998    0.1110000000000000 # F25
  0.8650000000000005    0.8239999999999996    0.3039999999999997 # F26
