@include include.inc
@SET METHOD QS
@SET MAX_SCF 20

! parameters needed to calculate energy and forces
! and describe the system you want to analyze.
&FORCE_EVAL 
	METHOD ${METHOD}

	! a subsystem: coordinates, topology, molecules
	! and cell
	&SUBSYS 

		! Input parameters needed to set up the CELL.
		&CELL 
			A 16.40863458717344 0.0 1.0047390912780253e-15
			B -1.0047390912780253e-15 16.40863458717344 1.0047390912780253e-15
			C 0.0 0.0 16.40863458717344
		&END CELL

		! The coordinates for simple systems (like small
		! QM cells) are specified here by default using
		! explicit XYZ coordinates. More complex systems
		! should be given via an external coordinate
		! file in the SUBSYS%TOPOLOGY section.
		&COORD 
			Si 1.3673862155977867 1.3673862155977867 1.367386215597787
			Si 1.3673862155977867 1.3673862155977867 6.836931077988934
			Si 1.3673862155977867 1.3673862155977867 12.30647594038008
			Si 1.3673862155977863 6.836931077988933 1.3673862155977874
			Si 1.3673862155977863 6.836931077988933 6.836931077988935
			Si 1.3673862155977863 6.836931077988933 12.30647594038008
			Si 1.367386215597786 12.306475940380082 1.3673862155977876
			Si 1.367386215597786 12.306475940380082 6.836931077988934
			Si 1.367386215597786 12.306475940380082 12.30647594038008
			Si 6.836931077988933 1.3673862155977867 1.3673862155977874
			Si 6.836931077988933 1.3673862155977867 6.836931077988935
			Si 6.836931077988933 1.3673862155977867 12.30647594038008
			Si 6.836931077988933 6.836931077988933 1.3673862155977876
			Si 6.836931077988933 6.836931077988933 6.836931077988934
			Si 6.836931077988933 6.836931077988933 12.30647594038008
			Si 6.8369310779889325 12.306475940380082 1.367386215597788
			Si 6.8369310779889325 12.306475940380082 6.836931077988934
			Si 6.8369310779889325 12.306475940380082 12.306475940380082
			Si 12.306475940380082 1.3673862155977867 1.3673862155977876
			Si 12.306475940380082 1.3673862155977867 6.836931077988934
			Si 12.306475940380082 1.3673862155977867 12.30647594038008
			Si 12.306475940380082 6.836931077988933 1.367386215597788
			Si 12.306475940380082 6.836931077988933 6.836931077988934
			Si 12.306475940380082 6.836931077988933 12.306475940380082
			Si 12.306475940380082 12.306475940380082 1.3673862155977883
			Si 12.306475940380082 12.306475940380082 6.836931077988934
			Si 12.306475940380082 12.306475940380082 12.306475940380082
			Si 16.40863458717344 2.7347724311955734 2.734772431195575
			Si 16.40863458717344 2.7347724311955734 8.204317293586723
			Si 16.40863458717344 2.7347724311955734 13.673862155977869
			Si 16.40863458717344 8.20431729358672 2.734772431195575
			Si 16.40863458717344 8.20431729358672 8.204317293586723
			Si 16.40863458717344 8.20431729358672 13.673862155977869
			Si 16.40863458717344 13.673862155977867 2.7347724311955752
			Si 16.40863458717344 13.673862155977867 8.204317293586723
			Si 16.40863458717344 13.673862155977867 13.673862155977869
			Si 5.469544862391147 2.7347724311955734 2.734772431195574
			Si 5.469544862391147 2.7347724311955734 8.20431729358672
			Si 5.469544862391147 2.7347724311955734 13.673862155977867
			Si 5.469544862391147 8.20431729358672 2.7347724311955743
			Si 5.469544862391147 8.20431729358672 8.20431729358672
			Si 5.469544862391147 8.20431729358672 13.673862155977867
			Si 5.469544862391146 13.673862155977867 2.7347724311955743
			Si 5.469544862391146 13.673862155977867 8.20431729358672
			Si 5.469544862391146 13.673862155977867 13.673862155977869
			Si 10.939089724782294 2.7347724311955734 2.7347724311955743
			Si 10.939089724782294 2.7347724311955734 8.20431729358672
			Si 10.939089724782294 2.7347724311955734 13.673862155977867
			Si 10.939089724782294 8.20431729358672 2.7347724311955743
			Si 10.939089724782294 8.20431729358672 8.20431729358672
			Si 10.939089724782294 8.20431729358672 13.673862155977869
			Si 10.939089724782294 13.673862155977867 2.734772431195575
			Si 10.939089724782294 13.673862155977867 8.20431729358672
			Si 10.939089724782294 13.673862155977867 13.673862155977869
			Si 1.3673862155977865 4.10215864679336 4.10215864679336
			Si 1.3673862155977865 4.10215864679336 9.571703509184507
			Si 1.3673862155977865 4.10215864679336 15.041248371575655
			Si 1.367386215597786 9.571703509184509 4.10215864679336
			Si 1.367386215597786 9.571703509184509 9.571703509184507
			Si 1.367386215597786 9.571703509184509 15.041248371575655
			Si 1.3673862155977858 15.041248371575657 4.102158646793361
			Si 1.3673862155977858 15.041248371575657 9.571703509184509
			Si 1.3673862155977858 15.041248371575657 15.041248371575655
			Si 6.836931077988933 4.10215864679336 4.10215864679336
			Si 6.836931077988933 4.10215864679336 9.571703509184507
			Si 6.836931077988933 4.10215864679336 15.041248371575655
			Si 6.836931077988933 9.571703509184509 4.102158646793361
			Si 6.836931077988933 9.571703509184509 9.571703509184509
			Si 6.836931077988933 9.571703509184509 15.041248371575655
			Si 6.8369310779889325 15.041248371575657 4.102158646793361
			Si 6.8369310779889325 15.041248371575657 9.571703509184509
			Si 6.8369310779889325 15.041248371575657 15.041248371575655
			Si 12.306475940380082 4.10215864679336 4.102158646793361
			Si 12.306475940380082 4.10215864679336 9.571703509184509
			Si 12.306475940380082 4.10215864679336 15.041248371575655
			Si 12.306475940380082 9.571703509184509 4.102158646793361
			Si 12.306475940380082 9.571703509184509 9.571703509184509
			Si 12.306475940380082 9.571703509184509 15.041248371575655
			Si 12.306475940380082 15.041248371575657 4.102158646793362
			Si 12.306475940380082 15.041248371575657 9.571703509184509
			Si 12.306475940380082 15.041248371575657 15.041248371575655
			Si 0.0 0.0 0.0
			Si 0.0 0.0 5.469544862391147
			Si 0.0 0.0 10.939089724782294
			Si 16.40863458717344 5.469544862391147 1.3396521217040336e-15
			Si 16.40863458717344 5.469544862391147 5.469544862391148
			Si 16.40863458717344 5.469544862391147 10.939089724782296
			Si 16.40863458717344 10.939089724782294 1.674565152130042e-15
			Si 16.40863458717344 10.939089724782294 5.469544862391149
			Si 16.40863458717344 10.939089724782294 10.939089724782296
			Si 5.469544862391147 0.0 3.3491303042600846e-16
			Si 5.469544862391147 0.0 5.469544862391147
			Si 5.469544862391147 0.0 10.939089724782294
			Si 5.469544862391147 5.469544862391147 6.698260608520169e-16
			Si 5.469544862391147 5.469544862391147 5.469544862391148
			Si 5.469544862391147 5.469544862391147 10.939089724782294
			Si 5.469544862391146 10.939089724782294 1.0047390912780255e-15
			Si 5.469544862391146 10.939089724782294 5.469544862391148
			Si 5.469544862391146 10.939089724782294 10.939089724782296
			Si 10.939089724782294 0.0 6.698260608520169e-16
			Si 10.939089724782294 0.0 5.469544862391148
			Si 10.939089724782294 0.0 10.939089724782294
			Si 10.939089724782294 5.469544862391147 1.0047390912780255e-15
			Si 10.939089724782294 5.469544862391147 5.469544862391148
			Si 10.939089724782294 5.469544862391147 10.939089724782296
			Si 10.939089724782294 10.939089724782294 1.3396521217040338e-15
			Si 10.939089724782294 10.939089724782294 5.469544862391148
			Si 10.939089724782294 10.939089724782294 10.939089724782296
			Si 4.10215864679336 1.3673862155977867 4.10215864679336
			Si 4.10215864679336 1.3673862155977867 9.571703509184507
			Si 4.10215864679336 1.3673862155977867 15.041248371575655
			Si 4.10215864679336 6.836931077988933 4.10215864679336
			Si 4.10215864679336 6.836931077988933 9.571703509184507
			Si 4.10215864679336 6.836931077988933 15.041248371575655
			Si 4.1021586467933595 12.306475940380082 4.102158646793361
			Si 4.1021586467933595 12.306475940380082 9.571703509184509
			Si 4.1021586467933595 12.306475940380082 15.041248371575655
			Si 9.571703509184509 1.3673862155977867 4.10215864679336
			Si 9.571703509184509 1.3673862155977867 9.571703509184507
			Si 9.571703509184509 1.3673862155977867 15.041248371575655
			Si 9.571703509184509 6.836931077988933 4.102158646793361
			Si 9.571703509184509 6.836931077988933 9.571703509184509
			Si 9.571703509184509 6.836931077988933 15.041248371575655
			Si 9.571703509184506 12.306475940380082 4.102158646793361
			Si 9.571703509184506 12.306475940380082 9.571703509184509
			Si 9.571703509184506 12.306475940380082 15.041248371575655
			Si 15.041248371575657 1.3673862155977867 4.102158646793361
			Si 15.041248371575657 1.3673862155977867 9.571703509184509
			Si 15.041248371575657 1.3673862155977867 15.041248371575655
			Si 15.041248371575657 6.836931077988933 4.102158646793361
			Si 15.041248371575657 6.836931077988933 9.571703509184509
			Si 15.041248371575657 6.836931077988933 15.041248371575655
			Si 15.041248371575657 12.306475940380082 4.102158646793362
			Si 15.041248371575657 12.306475940380082 9.571703509184509
			Si 15.041248371575657 12.306475940380082 15.041248371575655
			Si 2.7347724311955734 2.7347724311955734 3.3491303042600846e-16
			Si 2.7347724311955734 2.7347724311955734 5.469544862391147
			Si 2.7347724311955734 2.7347724311955734 10.939089724782294
			Si 2.734772431195573 8.20431729358672 6.698260608520169e-16
			Si 2.734772431195573 8.20431729358672 5.469544862391147
			Si 2.734772431195573 8.20431729358672 10.939089724782294
			Si 2.7347724311955726 13.673862155977867 1.0047390912780255e-15
			Si 2.7347724311955726 13.673862155977867 5.469544862391148
			Si 2.7347724311955726 13.673862155977867 10.939089724782296
			Si 8.20431729358672 2.7347724311955734 16.40863458717344
			Si 8.20431729358672 2.7347724311955734 5.469544862391147
			Si 8.20431729358672 2.7347724311955734 10.939089724782294
			Si 8.20431729358672 8.20431729358672 16.40863458717344
			Si 8.20431729358672 8.20431729358672 5.469544862391148
			Si 8.20431729358672 8.20431729358672 10.939089724782296
			Si 8.204317293586719 13.673862155977867 1.3396521217040336e-15
			Si 8.204317293586719 13.673862155977867 5.469544862391148
			Si 8.204317293586719 13.673862155977867 10.939089724782296
			Si 13.673862155977867 2.7347724311955734 1.0047390912780255e-15
			Si 13.673862155977867 2.7347724311955734 5.469544862391148
			Si 13.673862155977867 2.7347724311955734 10.939089724782296
			Si 13.673862155977867 8.20431729358672 1.3396521217040338e-15
			Si 13.673862155977867 8.20431729358672 5.469544862391148
			Si 13.673862155977867 8.20431729358672 10.939089724782296
			Si 13.673862155977867 13.673862155977867 1.6745651521300422e-15
			Si 13.673862155977867 13.673862155977867 5.469544862391148
			Si 13.673862155977867 13.673862155977867 10.939089724782296
			Si 4.10215864679336 4.10215864679336 1.3673862155977872
			Si 4.10215864679336 4.10215864679336 6.836931077988935
			Si 4.10215864679336 4.10215864679336 12.30647594038008
			Si 4.10215864679336 9.571703509184509 1.3673862155977876
			Si 4.10215864679336 9.571703509184509 6.836931077988934
			Si 4.10215864679336 9.571703509184509 12.30647594038008
			Si 4.1021586467933595 15.041248371575657 1.3673862155977878
			Si 4.1021586467933595 15.041248371575657 6.836931077988935
			Si 4.1021586467933595 15.041248371575657 12.30647594038008
			Si 9.571703509184509 4.10215864679336 1.3673862155977876
			Si 9.571703509184509 4.10215864679336 6.836931077988934
			Si 9.571703509184509 4.10215864679336 12.30647594038008
			Si 9.571703509184509 9.571703509184509 1.3673862155977878
			Si 9.571703509184509 9.571703509184509 6.836931077988935
			Si 9.571703509184509 9.571703509184509 12.30647594038008
			Si 9.571703509184507 15.041248371575657 1.3673862155977883
			Si 9.571703509184507 15.041248371575657 6.836931077988935
			Si 9.571703509184507 15.041248371575657 12.306475940380082
			Si 15.041248371575657 4.10215864679336 1.3673862155977878
			Si 15.041248371575657 4.10215864679336 6.836931077988935
			Si 15.041248371575657 4.10215864679336 12.30647594038008
			Si 15.041248371575657 9.571703509184509 1.3673862155977883
			Si 15.041248371575657 9.571703509184509 6.836931077988935
			Si 15.041248371575657 9.571703509184509 12.306475940380082
			Si 15.041248371575657 15.041248371575657 1.3673862155977885
			Si 15.041248371575657 15.041248371575657 6.836931077988935
			Si 15.041248371575657 15.041248371575657 12.306475940380084
			Si 2.7347724311955734 0.0 2.7347724311955734
			Si 2.7347724311955734 0.0 8.20431729358672
			Si 2.7347724311955734 0.0 13.673862155977867
			Si 2.734772431195573 5.469544862391147 2.734772431195574
			Si 2.734772431195573 5.469544862391147 8.20431729358672
			Si 2.734772431195573 5.469544862391147 13.673862155977867
			Si 2.734772431195572 10.939089724782294 2.7347724311955743
			Si 2.734772431195572 10.939089724782294 8.20431729358672
			Si 2.734772431195572 10.939089724782294 13.673862155977867
			Si 8.20431729358672 0.0 2.734772431195574
			Si 8.20431729358672 0.0 8.20431729358672
			Si 8.20431729358672 0.0 13.673862155977867
			Si 8.20431729358672 5.469544862391147 2.7347724311955743
			Si 8.20431729358672 5.469544862391147 8.20431729358672
			Si 8.20431729358672 5.469544862391147 13.673862155977867
			Si 8.204317293586719 10.939089724782294 2.7347724311955743
			Si 8.204317293586719 10.939089724782294 8.20431729358672
			Si 8.204317293586719 10.939089724782294 13.673862155977869
			Si 13.673862155977867 0.0 2.7347724311955743
			Si 13.673862155977867 0.0 8.20431729358672
			Si 13.673862155977867 0.0 13.673862155977867
			Si 13.673862155977867 5.469544862391147 2.7347724311955743
			Si 13.673862155977867 5.469544862391147 8.20431729358672
			Si 13.673862155977867 5.469544862391147 13.673862155977869
			Si 13.673862155977867 10.939089724782294 2.734772431195575
			Si 13.673862155977867 10.939089724782294 8.20431729358672
			Si 13.673862155977867 10.939089724782294 13.673862155977869
		&END COORD

		! The description of the kind of the atoms
		! (mostly for QM)
		&KIND Si
			ELEMENT Si
			MAGNETIZATION 0.0
			BASIS_SET DZVP-MOLOPT-GTH
			POTENTIAL GTH-PBE
			BASIS_SET AUX_FIT cFIT3
			&POTENTIAL
			    1 2 3 # Nonsense
			    11 3 0.1 # Nonsense
			&END
		&END KIND
	&END SUBSYS

	! parameter needed by dft programs
	&DFT 
		BASIS_SET_FILE_NAME BASIS_MOLOPT
		POTENTIAL_FILE_NAME GTH_POTENTIALS
		UKS True
		MULTIPLICITY 0
		CHARGE 0
		BASIS_SET_FILE_NAME BASIS_ADMM

		! parameters needed to set up the Quickstep
		! framework
		&QS 
			METHOD GPW
			EPS_DEFAULT 1e-12
			EXTRAPOLATION ASPC
		&END QS

		! Parameters needed to perform an SCF run.
		&SCF 
			MAX_SCF $MAX_SCF
			EPS_SCF 1e-07
			SCF_GUESS RESTART

			! Sets the various options for the orbital
			! transformation (OT) method. Default settings
			! already provide an efficient, yet robust
			! method. Most systems benefit from using the
			! FULL_ALL preconditioner combined with a small
			! value (0.001) of ENERGY_GAP. Well-behaved
			! systems might benefit from using a DIIS
			! minimizer. Advantages: It's fast, because no
			! expensive diagonalisationis performed. If
			! preconditioned correctly, method guaranteed
			! to find minimum. Disadvantages: Sensitive to
			! preconditioning. A good preconditioner can be
			! expensive. No smearing, or advanced SCF
			! mixing possible: POOR convergence for metalic
			! systems.
			&OT 
				MINIMIZER DIIS
				PRECONDITIONER FULL_ALL
				ENERGY_GAP 0.01
			&END OT
			&OUTER_SCF 
				MAX_SCF 20
				EPS_SCF 1e-07
			&END OUTER_SCF
		&END SCF

		! Multigrid information. Multigrid allows for
		! sharp gaussians and diffuse gaussians to be
		! treated on different grids, where the spacing
		! of FFT integration points can be tailored to
		! the degree of sharpness/diffusiveness of the
		! gaussians.
		&MGRID 
			CUTOFF 1200 ! Cutoff in [Ry] for finest level of the MG.
			REL_CUTOFF 80 ! Controls which gaussians are mapped to which level of the MG
			NGRIDS 5
			PROGRESSION_FACTOR 3
		&END MGRID
		&XC 
			&XC_FUNCTIONAL 
				&PBE 
					PARAMETRIZATION ORIG
					SCALE_C 1
					SCALE_X 0.75
				&END PBE
				&XWPBE 
					SCALE_X0 1
					SCALE_X -0.25
					OMEGA 0.11
				&END XWPBE
			&END XC_FUNCTIONAL
			&HF 
				FRACTION 0.25
				&SCREENING 
					EPS_SCHWARZ 1e-07
					EPS_SCHWARZ_FORCES 1e-07
					SCREEN_ON_INITIAL_P True
					SCREEN_P_FORCES True
				&END SCREENING
				&INTERACTION_POTENTIAL 
					POTENTIAL_TYPE SHORTRANGE
					OMEGA 0.11
				&END INTERACTION_POTENTIAL
				&LOAD_BALANCE 
					RANDOMIZE True
				&END LOAD_BALANCE
				&MEMORY 
					EPS_STORAGE_SCALING 0.1
					MAX_MEMORY 5000
				&END MEMORY
			&END HF
		&END XC
		&PRINT 

			! Controls printing of the projected density of
			! states
			&PDOS 
				NLUMO -1
				COMPONENTS 

				! Controls printing of the projected density
				! of states decomposed by atom type
				&LDOS 
					COMPONENTS 
				&END LDOS
			&END PDOS

			! Controls the printing of cube files with the
			! electronic density and, for LSD calculations,
			! the spin density.
			&E_DENSITY_CUBE 
			&END E_DENSITY_CUBE

			! Controls the printing of a cube file with
			! eletrostatic potential generated by the total
			! density (electrons+ions). It is valid only
			! for QS with GPW formalism. Note that by
			! convention the potential has opposite sign
			! than the expected physical one.
			&V_HARTREE_CUBE 
			&END V_HARTREE_CUBE

			! Controls the printing of a cube file with
			! eletrostatic potential generated by the total
			! density (electrons+ions). It is valid only
			! for QS with GPW formalism. Note that by
			! convention the potential has opposite sign
			! than the expected physical one.
			&MO_CUBES 
				WRITE_CUBE False
				NHOMO 1
				NLUMO 1
			&END MO_CUBES
		&END PRINT
		&AUXILIARY_DENSITY_MATRIX_METHOD 
			ADMM_PURIFICATION_METHOD MO_DIAG
			METHOD BASIS_PROJECTION
		&END AUXILIARY_DENSITY_MATRIX_METHOD
	&END DFT
&END FORCE_EVAL
&MOTION 
	&PRINT 
		&TRAJECTORY HIGH
		&END TRAJECTORY
		&CELL 
		&END CELL
	&END PRINT
&END MOTION

! Section with general information regarding which
! kind of simulationto perform an parameters for
! the whole PROGRAM
&GLOBAL 
	PROJECT_NAME Hybrid-Relax
	RUN_TYPE GEO_OPT
&END GLOBAL
