ALGO = A
EDIFF = 1e-06
ENCUT = 520
GGA = PS
IBRION = 6
ICHARG = 0
ISIF = 3
ISMEAR = -5
ISPIN = 2
ISTART = 1
LAECHG = True
LCHARG = True
LORBIT = 11
LPEAD = True
LREAL = False
LVHAR = True
LWAVE = True
NELM = 150
NSW = 100
PREC = Accurate
SIGMA = 0.05
METAGGA = SCAN
LASPH = T
ADDGRID = T
LUSE_VDW = T
BPARAM = 15.7
LASPH = TRUE

