FINDSYM finds R3c
   1.00000000000000     
     5.2386732990927829    0.0620684076961739   -0.8967987333915093
     2.3679063142316981    4.4775818945618298   -1.6088112683742066
     1.7347298504277189   -3.6803835541052039    9.8687247185511779
   4   4  12
Direct
  0.0962798210161998  0.5170843566615981  0.2630526154233745
  0.5962754807006138  0.5169623503816645  0.5130279899581097
  0.5963155510814035  0.5168358038460884  0.0129959699724357
  0.0962735166431018  0.5168407092014133  0.7629937318816394
  0.8261107796303290  0.0574718682112428  0.6684702093732453
  0.3261951799956889  0.0572013971333357  0.9184814857397195
  0.8261272244649722  0.0576268664705952  0.1684664169604693
  0.3261949383395789  0.0574370121569265  0.4184863275298087
  0.3964235407574523  0.0073884068532714  0.6229646864128351
  0.8963380376244441  0.4465043666947668  0.3729738986883339
  0.3965315636519186  0.0073811592615584  0.1230233097908227
  0.3056171906240864  0.5375565794150340  0.6232002983091213
  0.3662707565706725  0.5375237171031766  0.3731765041163740
  0.8664413937918374  0.4465521566853209  0.1231132123325286
  0.8054735826178311  0.0073840257945862  0.8731461553303717
  0.8664350177463623  0.4466318334241460  0.6230750692665478
  0.8963222349590436  0.4463498121000720  0.8730004106198560
  0.3662973036906439  0.5373795046009668  0.8731841025308469
  0.3055698460566810  0.5376042224815617  0.1232255686839733
  0.8055230400371350  0.0074671815226643  0.3731271370795857
 
  0.00000000E+00  0.00000000E+00  0.00000000E+00
  0.00000000E+00  0.00000000E+00  0.00000000E+00
  0.00000000E+00  0.00000000E+00  0.00000000E+00
  0.00000000E+00  0.00000000E+00  0.00000000E+00
  0.00000000E+00  0.00000000E+00  0.00000000E+00
  0.00000000E+00  0.00000000E+00  0.00000000E+00
  0.00000000E+00  0.00000000E+00  0.00000000E+00
  0.00000000E+00  0.00000000E+00  0.00000000E+00
  0.00000000E+00  0.00000000E+00  0.00000000E+00
  0.00000000E+00  0.00000000E+00  0.00000000E+00
  0.00000000E+00  0.00000000E+00  0.00000000E+00
  0.00000000E+00  0.00000000E+00  0.00000000E+00
  0.00000000E+00  0.00000000E+00  0.00000000E+00
  0.00000000E+00  0.00000000E+00  0.00000000E+00
  0.00000000E+00  0.00000000E+00  0.00000000E+00
  0.00000000E+00  0.00000000E+00  0.00000000E+00
  0.00000000E+00  0.00000000E+00  0.00000000E+00
  0.00000000E+00  0.00000000E+00  0.00000000E+00
  0.00000000E+00  0.00000000E+00  0.00000000E+00
  0.00000000E+00  0.00000000E+00  0.00000000E+00
