FINDSYM finds R3c
   1.00000000000000     
     4.7942520956467618    1.8132449716985586    1.4056177222130293
     0.9704420851364433    5.2472757220847637   -0.0319252043134948
    -0.7125145139300034   -5.2812187925442569    9.2463501243322401
   4   4  12
Direct
  0.6132393258962139  0.5093212166281099  0.2491032478593813
  0.1132361501382182  0.5093253872552627  0.4991004961922642
  0.1132341501382161  0.5093273872552576  0.9991024961922591
  0.6132403258962114  0.5093212166281099  0.7491022478593767
  0.8835744293252432  0.9687073199303989  0.3841365540657756
  0.3835205431545627  0.9687223525994858  0.1341457509046580
  0.8835734293252457  0.9687103199303985  0.8841385540657777
  0.3835215431545673  0.9687213525994883  0.6341437509046559
  0.3128398967974319  0.0189254279547384  0.8640621686521445
  0.4039701697167126  0.4888677712238338  0.5989619684257496
  0.3128398967974319  0.0189276279547357  0.3640641686521466
  0.8128037616748905  0.5798935619454914  0.3945428636351558
  0.8429745940861260  0.5800730975794738  0.1445751729598932
  0.3429416892717691  0.4888120730264633  0.3489346460144048
  0.9040044399388294  0.0189382918567536  0.6140081312905754
  0.3429416892717691  0.4888120730264633  0.8489336460144074
  0.4039661697167156  0.4888687712238313  0.0989622684257531
  0.8429755940861234  0.5800750975794758  0.6445761729598907
  0.8128017616748885  0.5798945619454959  0.8945428636351559
  0.9040034399388319  0.0189356918567516  0.1140071312905779
 
  0.00000000E+00  0.00000000E+00  0.00000000E+00
  0.00000000E+00  0.00000000E+00  0.00000000E+00
  0.00000000E+00  0.00000000E+00  0.00000000E+00
  0.00000000E+00  0.00000000E+00  0.00000000E+00
  0.00000000E+00  0.00000000E+00  0.00000000E+00
  0.00000000E+00  0.00000000E+00  0.00000000E+00
  0.00000000E+00  0.00000000E+00  0.00000000E+00
  0.00000000E+00  0.00000000E+00  0.00000000E+00
  0.00000000E+00  0.00000000E+00  0.00000000E+00
  0.00000000E+00  0.00000000E+00  0.00000000E+00
  0.00000000E+00  0.00000000E+00  0.00000000E+00
  0.00000000E+00  0.00000000E+00  0.00000000E+00
  0.00000000E+00  0.00000000E+00  0.00000000E+00
  0.00000000E+00  0.00000000E+00  0.00000000E+00
  0.00000000E+00  0.00000000E+00  0.00000000E+00
  0.00000000E+00  0.00000000E+00  0.00000000E+00
  0.00000000E+00  0.00000000E+00  0.00000000E+00
  0.00000000E+00  0.00000000E+00  0.00000000E+00
  0.00000000E+00  0.00000000E+00  0.00000000E+00
  0.00000000E+00  0.00000000E+00  0.00000000E+00
