FINDSYM finds Pm
   1.00000000000000     
     8.0943599431500619    1.1192953662079574    0.2124852717787376
    -0.3331047875897422   10.3307452998719995    0.5522385040675464
     1.5026702063150483   -0.1235835645426292    3.2318413332096600
   4   4  12
Direct
  0.5628373386139545  0.4675279486619908  0.3736509412121640
  0.4144517745341517  0.2348839504977093  0.5228803782765324
  0.4577172623262692  0.0247176004582578  0.9797603510330830
  0.1107867235553859  0.4705593586175230  0.8264299232938191
  0.8519506300745351  0.2622720843991122  0.5849356368374070
  0.2671410488153801  0.7641324549232515  0.6702856042329719
  0.8707220647547756  0.9737561901565297  0.0675007311013605
  0.7625536988437068  0.6740848777320714  0.6740024400289993
  0.7049290678618302  0.9578321138681671  0.7330643295890477
  0.6462553590903216  0.2880401516311415  0.2907157922467546
  0.3320947671702134  0.8856945920034146  0.1050905796370375
  0.0042374676465210  0.3282885752447982  0.9327822996111709
  0.4773743661091608  0.0509088045564334  0.4600878046306823
  0.9241071631639931  0.6052235803192286  0.0127092421720842
  0.6761186536175543  0.4714987190072530  0.7608088486683141
  0.3675155533541983  0.1993459063454150  0.0699297342361592
  0.2504622934616821  0.6089222995292373  0.1869660354586283
  0.3471308203794815  0.4112918893853741  0.5898680554584943
  0.5406525716243471  0.6475069829949255  0.3959695386207170
  0.1231553750025310  0.5119387196681738  0.3139850336545835
 
  0.00000000E+00  0.00000000E+00  0.00000000E+00
  0.00000000E+00  0.00000000E+00  0.00000000E+00
  0.00000000E+00  0.00000000E+00  0.00000000E+00
  0.00000000E+00  0.00000000E+00  0.00000000E+00
  0.00000000E+00  0.00000000E+00  0.00000000E+00
  0.00000000E+00  0.00000000E+00  0.00000000E+00
  0.00000000E+00  0.00000000E+00  0.00000000E+00
  0.00000000E+00  0.00000000E+00  0.00000000E+00
  0.00000000E+00  0.00000000E+00  0.00000000E+00
  0.00000000E+00  0.00000000E+00  0.00000000E+00
  0.00000000E+00  0.00000000E+00  0.00000000E+00
  0.00000000E+00  0.00000000E+00  0.00000000E+00
  0.00000000E+00  0.00000000E+00  0.00000000E+00
  0.00000000E+00  0.00000000E+00  0.00000000E+00
  0.00000000E+00  0.00000000E+00  0.00000000E+00
  0.00000000E+00  0.00000000E+00  0.00000000E+00
  0.00000000E+00  0.00000000E+00  0.00000000E+00
  0.00000000E+00  0.00000000E+00  0.00000000E+00
  0.00000000E+00  0.00000000E+00  0.00000000E+00
  0.00000000E+00  0.00000000E+00  0.00000000E+00
