FINDSYM finds Cmc2_1
   1.00000000000000     
     6.0566497821097043    0.3795121972298890    0.0416889858265167
     1.1892305190531443    2.6030960258193159   -0.0094870012677909
    -0.5988630056472680   -1.2540077098048823    2.5018934392124548
  18   2
Direct
  0.3595174582943753  0.5176827568981921  0.0012114976337420
  0.7225791892967559  0.5076971291774203  0.6481950697065459
  0.0698939458762775  0.4157742719950184  0.9274907124380144
  0.0697627563137735  0.8795223041070420  0.3935062668041655
  0.0599618376458357  0.3219093523037698  0.4920593659107028
  0.5700474147042542  0.5958569156889288  0.2483146452411631
  0.7564008059540728  0.8185841738045437  0.3032567839611864
  0.5858014370160861  0.2444031336587713  0.5946505820807004
  0.2566102910903806  0.2843150504257914  0.3371762409353116
  0.5858335854443069  0.6974200671154371  0.0481837256445709
  0.3901262038197285  0.1688711406511725  0.3189859356241224
  0.2225770912212840  0.6632539334212298  0.9928511728845461
  0.8899389874294216  0.6670256283206281  0.3214713883251348
  0.8594749399598607  0.3792242142205383  0.6392373425020790
  0.0856848206680562  0.2009593974856005  0.0460867402881626
  0.5697801939326591  0.0610201932622665  0.7130201663515697
  0.0861797032443645  0.7453681950826812  0.5932837305405847
  0.5600355158774711  0.1714650538951173  0.1461758468824457
  0.3424316793489581  0.8742328696958156  0.6616426675432113
  0.8425094428620844  0.0566577187900324  0.9787883487020472
 
  0.00000000E+00  0.00000000E+00  0.00000000E+00
  0.00000000E+00  0.00000000E+00  0.00000000E+00
  0.00000000E+00  0.00000000E+00  0.00000000E+00
  0.00000000E+00  0.00000000E+00  0.00000000E+00
  0.00000000E+00  0.00000000E+00  0.00000000E+00
  0.00000000E+00  0.00000000E+00  0.00000000E+00
  0.00000000E+00  0.00000000E+00  0.00000000E+00
  0.00000000E+00  0.00000000E+00  0.00000000E+00
  0.00000000E+00  0.00000000E+00  0.00000000E+00
  0.00000000E+00  0.00000000E+00  0.00000000E+00
  0.00000000E+00  0.00000000E+00  0.00000000E+00
  0.00000000E+00  0.00000000E+00  0.00000000E+00
  0.00000000E+00  0.00000000E+00  0.00000000E+00
  0.00000000E+00  0.00000000E+00  0.00000000E+00
  0.00000000E+00  0.00000000E+00  0.00000000E+00
  0.00000000E+00  0.00000000E+00  0.00000000E+00
  0.00000000E+00  0.00000000E+00  0.00000000E+00
  0.00000000E+00  0.00000000E+00  0.00000000E+00
  0.00000000E+00  0.00000000E+00  0.00000000E+00
  0.00000000E+00  0.00000000E+00  0.00000000E+00
