FINDSYM finds C2
   1.00000000000000     
     3.0862034428882930   -0.0061740449954627    0.0771065378323145
    -0.0055817307757720    8.9378071882876462    1.0714808471957371
    -1.7595384299272794   -1.6712253860455217    8.5174514397732199
   4   4  12
Direct
  0.7547618719861585  0.3709352584036946  0.8230239017554005
  0.6443508030928182  0.5454740910209043  0.5381432194472726
  0.1062598885949522  0.2749413120284499  0.5336098522688195
  0.2905875486578091  0.1004206121165623  0.8185004046861083
  0.9297688542593573  0.1201878185036251  0.1619513616718719
  0.9384630226831360  0.5261913092938726  0.1947748632807444
  0.5712063114181114  0.9157174396752665  0.4936963142826873
  0.2526914069082718  0.7301215757162289  0.8629747740075776
  0.5885785991643846  0.2059496924559126  0.6821007421686507
  0.7830989072993487  0.5533003058122447  0.9262417846511573
  0.0822153391481205  0.4403736916886365  0.6739116006240883
  0.5463548945355902  0.3550867628012769  0.4390531475907071
  0.6649389611065935  0.7006297095938352  0.6814275044074063
  0.1645368528607244  0.9454748234433605  0.6751850183046780
  0.8271559009576183  0.0355078280357572  0.9145445869245249
  0.0848109682071294  0.6108859194665607  0.4420059034073893
  0.4382664209869460  0.9691193700624927  0.1822645552220600
  0.0368252033973344  0.0925606680223063  0.4302065522766315
  0.4262835864572549  0.6772099041761191  0.1738038318846121
  0.2896425582783375  0.2910093076828788  0.9171800811376110
 
  0.00000000E+00  0.00000000E+00  0.00000000E+00
  0.00000000E+00  0.00000000E+00  0.00000000E+00
  0.00000000E+00  0.00000000E+00  0.00000000E+00
  0.00000000E+00  0.00000000E+00  0.00000000E+00
  0.00000000E+00  0.00000000E+00  0.00000000E+00
  0.00000000E+00  0.00000000E+00  0.00000000E+00
  0.00000000E+00  0.00000000E+00  0.00000000E+00
  0.00000000E+00  0.00000000E+00  0.00000000E+00
  0.00000000E+00  0.00000000E+00  0.00000000E+00
  0.00000000E+00  0.00000000E+00  0.00000000E+00
  0.00000000E+00  0.00000000E+00  0.00000000E+00
  0.00000000E+00  0.00000000E+00  0.00000000E+00
  0.00000000E+00  0.00000000E+00  0.00000000E+00
  0.00000000E+00  0.00000000E+00  0.00000000E+00
  0.00000000E+00  0.00000000E+00  0.00000000E+00
  0.00000000E+00  0.00000000E+00  0.00000000E+00
  0.00000000E+00  0.00000000E+00  0.00000000E+00
  0.00000000E+00  0.00000000E+00  0.00000000E+00
  0.00000000E+00  0.00000000E+00  0.00000000E+00
  0.00000000E+00  0.00000000E+00  0.00000000E+00
