FCC (face-centered cubic) G-X-W-K-G-L-U-W-L-K U-X
16   ! 16 grids 
Line-mode 
reciprocal 
   0.000   0.000   0.000   ! \Gamma 
   0.500   0.000   0.500   ! X 
 
   0.500   0.000   0.500   ! X 
   0.500   0.250   0.750   ! W 
 
   0.500   0.250   0.750   ! W 
   0.375   0.375   0.750   ! K 
 
   0.375   0.375   0.750   ! K 
   0.000   0.000   0.000   ! \Gamma 
 
   0.000   0.000   0.000   ! \Gamma 
   0.500   0.500   0.500   ! L 
 
   0.500   0.500   0.500   ! L 
   0.625   0.250   0.625   ! U 
 
   0.625   0.250   0.625   ! U 
   0.500   0.250   0.750   ! W 
 
   0.500   0.250   0.750   ! W 
   0.500   0.500   0.500   ! L 
 
   0.500   0.500   0.500   ! L 
   0.375   0.375   0.750   ! K 
 
   0.625   0.250   0.625   ! U 
   0.500   0.000   0.500   ! X 
// END ************************************************************************************
