FINDSYM finds Pc
   1.00000000000000     
     3.7668658779046242   -0.2526363169248627   -0.3909143489813395
     0.4126424943540823    7.5129095763967930   -0.0136225756754529
     0.6901112196345119    0.0603991507863854    7.4962532790130991
   4   4  12
Direct
  0.9525215854179879  0.1735141612887874  0.7435424941602350
  0.9524739822599507  0.6735210653178597  0.2434632277491809
  0.9524597533682075  0.6768418642821685  0.7401677083403142
  0.9525357970439058  0.1768643727314607  0.2402074707235176
  0.5042814350986156  0.4060570640528923  0.9634950823257925
  0.5043776071753769  0.3971423498507791  0.4725044636138762
  0.5043541530369365  0.9061088755369511  0.4633792004988111
  0.5040377679741697  0.8970685669303987  0.9723981712277499
  0.4395713802410722  0.1877909978827128  0.7553060494815979
  0.9158719130536632  0.9307118467682090  0.2376235115863232
  0.4395653037379523  0.1883698213177756  0.2548042015674308
  0.4395074161919428  0.6883731372626732  0.7547580735678250
  0.9287250570758719  0.4298180259292276  0.2716754705129796
  0.9286085523637826  0.2048168416405981  0.9966170013660888
  0.9158232419533636  0.6707213209807763  0.9974502608217271
  0.9283827894076810  0.7047056862464066  0.4965602196967903
  0.9287713911515645  0.9298090277507504  0.7716838694177337
  0.9158562604089533  0.4306908021571946  0.7375890681822121
  0.4395130866383787  0.6878349360194402  0.2551439498569619
  0.9157795264006211  0.1707042360529422  0.4975145053028533
 
  0.00000000E+00  0.00000000E+00  0.00000000E+00
  0.00000000E+00  0.00000000E+00  0.00000000E+00
  0.00000000E+00  0.00000000E+00  0.00000000E+00
  0.00000000E+00  0.00000000E+00  0.00000000E+00
  0.00000000E+00  0.00000000E+00  0.00000000E+00
  0.00000000E+00  0.00000000E+00  0.00000000E+00
  0.00000000E+00  0.00000000E+00  0.00000000E+00
  0.00000000E+00  0.00000000E+00  0.00000000E+00
  0.00000000E+00  0.00000000E+00  0.00000000E+00
  0.00000000E+00  0.00000000E+00  0.00000000E+00
  0.00000000E+00  0.00000000E+00  0.00000000E+00
  0.00000000E+00  0.00000000E+00  0.00000000E+00
  0.00000000E+00  0.00000000E+00  0.00000000E+00
  0.00000000E+00  0.00000000E+00  0.00000000E+00
  0.00000000E+00  0.00000000E+00  0.00000000E+00
  0.00000000E+00  0.00000000E+00  0.00000000E+00
  0.00000000E+00  0.00000000E+00  0.00000000E+00
  0.00000000E+00  0.00000000E+00  0.00000000E+00
  0.00000000E+00  0.00000000E+00  0.00000000E+00
  0.00000000E+00  0.00000000E+00  0.00000000E+00
