Ba1 Ti1 O3
1.0
4.001368 0.000000 0.000000
0.000000 4.001368 0.000000
0.000000 0.000000 4.215744
Ba Ti O
1 1 3
direct
0.000000 0.000000 0.020273 Ba
0.500000 0.500000 0.538852 Ti
0.000000 0.500000 0.492022 O
0.500000 0.000000 0.492022 O
0.500000 0.500000 0.970829 O
