Titel of Simulation                     
   1.00000000000000     
     4.0750624894332894    0.0000000000000000    0.0000000000000000
     2.0375312447166447    3.5291076378218662    0.0000000000000424
     2.0375312447166447    1.1763692126440133    3.3272745897341403
   Ga   As
     1     1
Direct
  0.2500000000000000  0.2500000000000000  0.2500000000000000
  0.0000000000000000  0.0000000000000000  0.0000000000000000
