ALGO = Exact
CSHIFT = 0.1
EDIFF = 1e-05
EDIFFG = -0.05
ENAUG = 1360.0
ENCUT = 680.0
GGA = Ps
IBRION = -1
ISIF = 3
ISMEAR = -5
ISPIN = 2
KSPACING = 0.22
LAECHG = True
LASPH = True
LCHARG = True
LELF = True
LMIXTAU = True
LOPTICS = True
LORBIT = 11
LREAL = Auto
LVHAR = True
LVTOT = True
LWAVE = True
MAGMOM = 2*0.0
METAGGA = None
NBANDS = 48
NEDOS = 2001
NELM = 200
NSW = 0
PREC = Accurate
SIGMA = 0.2
