In1 P1
   1.00000000000000
     0.0000000000000000    2.9395449999999999    2.9395449999999999
     2.9395449999999999    0.0000000000000000    2.9395449999999999
     2.9395449999999999    2.9395449999999999    0.0000000000000000
   In   P
     1     1
Direct
  0.0000000000000000  0.0000000000000000  0.0000000000000000
  0.7500000000000000  0.7500000000000000  0.7500000000000000

  0.00000000E+00  0.00000000E+00  0.00000000E+00
  0.00000000E+00  0.00000000E+00  0.00000000E+00
