Ni108
1.0
  10.4254375978440326    0.0000000000000000    0.0000000000000006
   0.0000000000000018   10.4254375978440326    0.0000000000000006
   0.0000000000000000    0.0000000000000000   10.4254375978440326
Ni
108
direct
   0.0000000000000000    0.0000000000000000    0.0000000000000000 Ni
   0.0000000000000000    0.0000000000000000    0.3333333333333333 Ni
   0.0000000000000000    0.0000000000000000    0.6666666666666666 Ni
   0.0000000000000000    0.3333333333333333    0.0000000000000000 Ni
   0.0000000000000000    0.3333333333333333    0.3333333333333333 Ni
   0.0000000000000000    0.3333333333333333    0.6666666666666666 Ni
   0.0000000000000000    0.6666666666666666    0.0000000000000000 Ni
   0.0000000000000000    0.6666666666666666    0.3333333333333333 Ni
   0.0000000000000000    0.6666666666666666    0.6666666666666666 Ni
   0.3333333333333333    0.0000000000000000    0.0000000000000000 Ni
   0.3333333333333333    0.0000000000000000    0.3333333333333333 Ni
   0.3333333333333333    0.0000000000000000    0.6666666666666666 Ni
   0.3333333333333333    0.3333333333333333    0.0000000000000000 Ni
   0.3333333333333333    0.3333333333333333    0.3333333333333333 Ni
   0.3333333333333333    0.3333333333333333    0.6666666666666666 Ni
   0.3333333333333333    0.6666666666666666    0.0000000000000000 Ni
   0.3333333333333333    0.6666666666666666    0.3333333333333333 Ni
   0.3333333333333333    0.6666666666666666    0.6666666666666666 Ni
   0.6666666666666666    0.0000000000000000    0.0000000000000000 Ni
   0.6666666666666666    0.0000000000000000    0.3333333333333333 Ni
   0.6666666666666666    0.0000000000000000    0.6666666666666666 Ni
   0.6666666666666666    0.3333333333333333    1.0000000000000000 Ni
   0.6666666666666666    0.3333333333333333    0.3333333333333333 Ni
   0.6666666666666666    0.3333333333333333    0.6666666666666666 Ni
   0.6666666666666666    0.6666666666666666    0.0000000000000000 Ni
   0.6666666666666666    0.6666666666666666    0.3333333333333333 Ni
   0.6666666666666666    0.6666666666666666    0.6666666666666666 Ni
   0.0000000000000000    0.1666666666666667    0.1666666666666667 Ni
   0.0000000000000000    0.1666666666666667    0.5000000000000000 Ni
   0.0000000000000000    0.1666666666666667    0.8333333333333333 Ni
   0.0000000000000000    0.5000000000000000    0.1666666666666667 Ni
   0.0000000000000000    0.5000000000000000    0.5000000000000000 Ni
   0.0000000000000000    0.5000000000000000    0.8333333333333333 Ni
   0.0000000000000000    0.8333333333333333    0.1666666666666667 Ni
   0.0000000000000000    0.8333333333333333    0.4999999999999999 Ni
   0.0000000000000000    0.8333333333333333    0.8333333333333333 Ni
   0.3333333333333333    0.1666666666666667    0.1666666666666667 Ni
   0.3333333333333333    0.1666666666666667    0.5000000000000000 Ni
   0.3333333333333333    0.1666666666666667    0.8333333333333333 Ni
   0.3333333333333333    0.5000000000000000    0.1666666666666667 Ni
   0.3333333333333333    0.5000000000000000    0.4999999999999999 Ni
   0.3333333333333333    0.5000000000000000    0.8333333333333333 Ni
   0.3333333333333333    0.8333333333333333    0.1666666666666667 Ni
   0.3333333333333333    0.8333333333333333    0.5000000000000000 Ni
   0.3333333333333333    0.8333333333333333    0.8333333333333333 Ni
   0.6666666666666666    0.1666666666666667    0.1666666666666667 Ni
   0.6666666666666666    0.1666666666666667    0.4999999999999999 Ni
   0.6666666666666666    0.1666666666666667    0.8333333333333333 Ni
   0.6666666666666666    0.5000000000000000    0.1666666666666667 Ni
   0.6666666666666666    0.5000000000000000    0.5000000000000000 Ni
   0.6666666666666666    0.5000000000000000    0.8333333333333333 Ni
   0.6666666666666666    0.8333333333333333    0.1666666666666667 Ni
   0.6666666666666666    0.8333333333333333    0.5000000000000000 Ni
   0.6666666666666666    0.8333333333333333    0.8333333333333333 Ni
   0.1666666666666667    0.0000000000000000    0.1666666666666667 Ni
   0.1666666666666667    0.0000000000000000    0.5000000000000000 Ni
   0.1666666666666667    0.0000000000000000    0.8333333333333333 Ni
   0.1666666666666667    0.3333333333333333    0.1666666666666667 Ni
   0.1666666666666667    0.3333333333333333    0.5000000000000000 Ni
   0.1666666666666667    0.3333333333333333    0.8333333333333333 Ni
   0.1666666666666667    0.6666666666666666    0.1666666666666667 Ni
   0.1666666666666667    0.6666666666666666    0.4999999999999999 Ni
   0.1666666666666667    0.6666666666666666    0.8333333333333333 Ni
   0.5000000000000000    0.0000000000000000    0.1666666666666667 Ni
   0.5000000000000000    0.0000000000000000    0.5000000000000000 Ni
   0.5000000000000000    0.0000000000000000    0.8333333333333333 Ni
   0.4999999999999999    0.3333333333333333    0.1666666666666667 Ni
   0.4999999999999999    0.3333333333333333    0.4999999999999999 Ni
   0.4999999999999999    0.3333333333333333    0.8333333333333333 Ni
   0.5000000000000000    0.6666666666666666    0.1666666666666667 Ni
   0.5000000000000000    0.6666666666666666    0.5000000000000000 Ni
   0.5000000000000000    0.6666666666666666    0.8333333333333333 Ni
   0.8333333333333333    0.0000000000000000    0.1666666666666667 Ni
   0.8333333333333333    0.0000000000000000    0.4999999999999999 Ni
   0.8333333333333333    0.0000000000000000    0.8333333333333333 Ni
   0.8333333333333331    0.3333333333333333    0.1666666666666667 Ni
   0.8333333333333331    0.3333333333333333    0.5000000000000000 Ni
   0.8333333333333331    0.3333333333333333    0.8333333333333333 Ni
   0.8333333333333331    0.6666666666666666    0.1666666666666667 Ni
   0.8333333333333331    0.6666666666666666    0.5000000000000000 Ni
   0.8333333333333331    0.6666666666666666    0.8333333333333333 Ni
   0.1666666666666667    0.1666666666666667    0.0000000000000000 Ni
   0.1666666666666667    0.1666666666666667    0.3333333333333333 Ni
   0.1666666666666667    0.1666666666666667    0.6666666666666666 Ni
   0.1666666666666667    0.5000000000000000    1.0000000000000000 Ni
   0.1666666666666667    0.5000000000000000    0.3333333333333333 Ni
   0.1666666666666667    0.5000000000000000    0.6666666666666666 Ni
   0.1666666666666667    0.8333333333333333    1.0000000000000000 Ni
   0.1666666666666667    0.8333333333333333    0.3333333333333333 Ni
   0.1666666666666667    0.8333333333333333    0.6666666666666666 Ni
   0.4999999999999999    0.1666666666666667    0.0000000000000000 Ni
   0.4999999999999999    0.1666666666666667    0.3333333333333333 Ni
   0.4999999999999999    0.1666666666666667    0.6666666666666666 Ni
   0.5000000000000000    0.5000000000000000    1.0000000000000000 Ni
   0.5000000000000000    0.5000000000000000    0.3333333333333333 Ni
   0.5000000000000000    0.5000000000000000    0.6666666666666666 Ni
   0.4999999999999999    0.8333333333333333    0.0000000000000000 Ni
   0.4999999999999999    0.8333333333333333    0.3333333333333333 Ni
   0.4999999999999999    0.8333333333333333    0.6666666666666666 Ni
   0.8333333333333333    0.1666666666666667    1.0000000000000000 Ni
   0.8333333333333333    0.1666666666666667    0.3333333333333333 Ni
   0.8333333333333333    0.1666666666666667    0.6666666666666666 Ni
   0.8333333333333331    0.5000000000000000    0.0000000000000000 Ni
   0.8333333333333331    0.5000000000000000    0.3333333333333333 Ni
   0.8333333333333331    0.5000000000000000    0.6666666666666666 Ni
   0.8333333333333331    0.8333333333333333    0.0000000000000000 Ni
   0.8333333333333331    0.8333333333333333    0.3333333333333333 Ni
   0.8333333333333331    0.8333333333333333    0.6666666666666666 Ni
