Ni4
1.0
   3.4751458659480110    0.0000000000000000    0.0000000000000002
   0.0000000000000006    3.4751458659480110    0.0000000000000002
   0.0000000000000000    0.0000000000000000    3.4751458659480110
Ni
4
direct
   0.0000000000000000    0.0000000000000000    0.0000000000000000 Ni
   0.0000000000000000    0.5000000000000000    0.5000000000000000 Ni
   0.5000000000000000    0.0000000000000000    0.5000000000000000 Ni
   0.5000000000000000    0.5000000000000000    0.0000000000000000 Ni
