FINDSYM finds Cm
   1.00000000000000     
     3.0399837305035393   -0.2689430591255473    0.3854696358687387
     2.3242680883263844    8.9135745201241541    0.1859370039210433
     0.5019497901415106    1.1955705707455986    9.1769697990207320
   4   4  12
Direct
  0.6365543883399805  0.2168683250241590  0.8349212688156322
  0.3180000041714035  0.9560280191806216  0.7340163351485731
  0.8777658498052986  0.1151121088405078  0.4550310878776788
  0.1065864621846289  0.0072121351676283  0.1059871883491276
  0.8956928686074498  0.3695383567748922  0.1624958578471075
  0.1922885604268676  0.4192789041684393  0.5205495216332791
  0.9488203816782870  0.5994115216774315  0.8292348064600047
  0.5898435066848926  0.7942902854820374  0.3520358955206325
  0.3599410765687004  0.2377653830839307  0.3669711624331613
  0.7524476676322344  0.0257219682341220  0.7953979917597759
  0.5759129909960143  0.1345892233591163  0.0382336680660868
  0.3676355339298624  0.7757062443086886  0.8147813248507079
  0.3917193637416118  0.5021606191740612  0.0381871115153924
  0.5565967621554688  0.5620020817252123  0.6498210853653984
  0.3938088061491354  0.9971691044555090  0.5413402125396135
  0.0109879077720433  0.0004392493049988  0.3040222591491542
  0.0915177347389307  0.3099506674339617  0.8313742862297122
  0.7396062065249935  0.2436662766992443  0.6014294689601524
  0.6674747362028992  0.8704642893766082  0.1224072925140652
  0.7367029916892964  0.5218437165288294  0.3287928749647472
 
  0.00000000E+00  0.00000000E+00  0.00000000E+00
  0.00000000E+00  0.00000000E+00  0.00000000E+00
  0.00000000E+00  0.00000000E+00  0.00000000E+00
  0.00000000E+00  0.00000000E+00  0.00000000E+00
  0.00000000E+00  0.00000000E+00  0.00000000E+00
  0.00000000E+00  0.00000000E+00  0.00000000E+00
  0.00000000E+00  0.00000000E+00  0.00000000E+00
  0.00000000E+00  0.00000000E+00  0.00000000E+00
  0.00000000E+00  0.00000000E+00  0.00000000E+00
  0.00000000E+00  0.00000000E+00  0.00000000E+00
  0.00000000E+00  0.00000000E+00  0.00000000E+00
  0.00000000E+00  0.00000000E+00  0.00000000E+00
  0.00000000E+00  0.00000000E+00  0.00000000E+00
  0.00000000E+00  0.00000000E+00  0.00000000E+00
  0.00000000E+00  0.00000000E+00  0.00000000E+00
  0.00000000E+00  0.00000000E+00  0.00000000E+00
  0.00000000E+00  0.00000000E+00  0.00000000E+00
  0.00000000E+00  0.00000000E+00  0.00000000E+00
  0.00000000E+00  0.00000000E+00  0.00000000E+00
  0.00000000E+00  0.00000000E+00  0.00000000E+00
