FINDSYM finds Pc
   1.00000000000000     
     3.7484850618560537    0.5179527621527573    0.2725676000178477
     2.5954120365612385    7.9478524331504028    0.7065992265067038
     3.1731369922769055    0.0785542643845797    7.7623356251774149
   4   4  12
Direct
  0.4389346288864205  0.1795598238971019  0.7431541681120870
  0.4389412564990736  0.6795644110895200  0.2431557484978026
  0.9389356389821629  0.6765346698939011  0.7461778169618284
  0.9389501232170477  0.1765415445420275  0.2461756297366314
  0.3390501567323055  0.4481451150190989  0.0224142991053908
  0.8390147964137699  0.4563780753333657  0.5142060952865755
  0.3390152622678815  0.9481162864188853  0.5224106714099574
  0.8390355287372468  0.9564111778151828  0.0142011459673810
  0.9781846373640883  0.1649408017525918  0.7314431658862622
  0.2466718723094136  0.9231612147636865  0.2162428250409335
  0.4780695044177173  0.1643555753931630  0.2321488003074096
  0.4780507965806047  0.6643414392518678  0.7321621645020625
  0.7276808634381611  0.4223653701660671  0.2479653568307503
  0.2276784133946161  0.1810091104319382  0.9891980490356383
  0.7463791888996706  0.6492677818631516  0.9900013558969673
  0.2276808569331891  0.6810235977688703  0.4892004444024919
  0.7276847343627200  0.9223598206645673  0.7479570915952536
  0.2466458869191910  0.4231569924803437  0.7162315854213671
  0.9781965053169768  0.6649451293532957  0.2314368458367852
  0.7463983483277447  0.1492850621013686  0.4899991401664211
 
  0.00000000E+00  0.00000000E+00  0.00000000E+00
  0.00000000E+00  0.00000000E+00  0.00000000E+00
  0.00000000E+00  0.00000000E+00  0.00000000E+00
  0.00000000E+00  0.00000000E+00  0.00000000E+00
  0.00000000E+00  0.00000000E+00  0.00000000E+00
  0.00000000E+00  0.00000000E+00  0.00000000E+00
  0.00000000E+00  0.00000000E+00  0.00000000E+00
  0.00000000E+00  0.00000000E+00  0.00000000E+00
  0.00000000E+00  0.00000000E+00  0.00000000E+00
  0.00000000E+00  0.00000000E+00  0.00000000E+00
  0.00000000E+00  0.00000000E+00  0.00000000E+00
  0.00000000E+00  0.00000000E+00  0.00000000E+00
  0.00000000E+00  0.00000000E+00  0.00000000E+00
  0.00000000E+00  0.00000000E+00  0.00000000E+00
  0.00000000E+00  0.00000000E+00  0.00000000E+00
  0.00000000E+00  0.00000000E+00  0.00000000E+00
  0.00000000E+00  0.00000000E+00  0.00000000E+00
  0.00000000E+00  0.00000000E+00  0.00000000E+00
  0.00000000E+00  0.00000000E+00  0.00000000E+00
  0.00000000E+00  0.00000000E+00  0.00000000E+00
