Fe31
1.0
7.267193 0.000000 0.000000
0.000000 7.267193 0.000000
0.000000 0.000000 7.267193
Fe
31
direct
0.000316 1.006721 0.493667 Fe
0.999978 0.494250 0.005812 Fe
0.999911 0.493697 0.494203 Fe
0.500656 1.001585 0.001969 Fe
0.499582 0.002103 0.497715 Fe
0.499842 0.498148 0.001877 Fe
0.499434 0.497965 0.498137 Fe
0.999735 0.005702 0.005891 Fe
-0.000038 0.250081 0.749829 Fe
1.000254 0.750187 0.250130 Fe
1.000135 0.750401 0.749308 Fe
0.500205 0.249786 0.249744 Fe
0.499438 0.249563 0.750222 Fe
0.500096 0.749998 0.250391 Fe
0.499519 0.750085 0.749646 Fe
0.244282 1.005975 0.249786 Fe
0.248189 1.002198 0.749689 Fe
0.243956 0.493491 0.249955 Fe
0.247718 0.497864 0.750098 Fe
0.755908 0.005677 0.249965 Fe
0.751969 0.002090 0.749576 Fe
0.755277 0.494507 0.250198 Fe
0.751673 0.498254 0.749792 Fe
0.244626 0.249366 0.005556 Fe
0.244726 0.250038 0.494021 Fe
0.247751 0.750352 0.002105 Fe
0.247894 0.750041 0.497560 Fe
0.755402 0.250398 1.005831 Fe
0.755350 0.249978 0.494176 Fe
0.751910 0.749767 0.001901 Fe
0.751685 0.750328 0.498215 Fe

0.000000 0.000000 0.000000
0.000000 0.000000 0.000000
0.000000 0.000000 0.000000
0.000000 0.000000 0.000000
0.000000 0.000000 0.000000
0.000000 0.000000 0.000000
0.000000 0.000000 0.000000
0.000000 0.000000 0.000000
0.000000 0.000000 0.000000
0.000000 0.000000 0.000000
0.000000 0.000000 0.000000
0.000000 0.000000 0.000000
0.000000 0.000000 0.000000
0.000000 0.000000 0.000000
0.000000 0.000000 0.000000
0.000000 0.000000 0.000000
0.000000 0.000000 0.000000
0.000000 0.000000 0.000000
0.000000 0.000000 0.000000
0.000000 0.000000 0.000000
0.000000 0.000000 0.000000
0.000000 0.000000 0.000000
0.000000 0.000000 0.000000
0.000000 0.000000 0.000000
0.000000 0.000000 0.000000
0.000000 0.000000 0.000000
0.000000 0.000000 0.000000
0.000000 0.000000 0.000000
0.000000 0.000000 0.000000
0.000000 0.000000 0.000000
0.000000 0.000000 0.000000
