group 32
   1.00000000000000
     -6.4032700000000000     6.4032700000000000     6.4032700000000000
      6.4032700000000000    -6.4032700000000000     6.4032700000000000
      6.4032700000000000     6.4032700000000000    -6.4032700000000000
   2   2   2   2   2   2   2   2   2   2   2   1   1   2   2   2   2   2   1   1   2   2   1   1   2   2   1   1   2   2   2   2   2   2   2   2   2   2   2   2   2   2   2   2   2   2   2   2   2   2   2   2   2   2   2   2
Direct
  0.2500000000000000  0.6250000000000000  0.3750000000000000
  0.3750000000000000  0.6250000000000000  0.7500000000000000
  0.7500000000000000  0.8750000000000000  0.1250000000000000
  0.1250000000000000  0.8750000000000000  0.2500000000000000
  0.3750000000000000  0.2500000000000000  0.6250000000000000
  0.8750000000000000  0.2500000000000000  0.1250000000000000
  0.1250000000000000  0.7500000000000000  0.8750000000000000
  0.6250000000000000  0.7500000000000000  0.3750000000000000
  0.6250000000000000  0.3750000000000000  0.2500000000000000
  0.7500000000000000  0.3750000000000000  0.6250000000000000
  0.8750000000000000  0.1250000000000000  0.7500000000000000
  0.2500000000000000  0.1250000000000000  0.8750000000000000
  0.2500000000000000  0.6875000000000000  0.8125000000000000
  0.4375000000000000  0.6875000000000000  0.3750000000000000
  0.3750000000000000  0.4375000000000000  0.6875000000000000
  0.0625000000000000  0.4375000000000000  0.2500000000000000
  0.1250000000000000  0.8125000000000000  0.0625000000000000
  0.6875000000000000  0.8125000000000000  0.2500000000000000
  0.2500000000000000  0.0625000000000000  0.4375000000000000
  0.8125000000000000  0.0625000000000000  0.1250000000000000
  0.8125000000000000  0.2500000000000000  0.6875000000000000
  0.4375000000000000  0.2500000000000000  0.0625000000000000
  0.6875000000000000  0.3750000000000000  0.4375000000000000
  0.0625000000000000  0.1250000000000000  0.8125000000000000
  0.7500000000000000  0.3125000000000000  0.1875000000000000
  0.5625000000000000  0.3125000000000000  0.6250000000000000
  0.6250000000000000  0.5625000000000000  0.3125000000000000
  0.9375000000000000  0.5625000000000000  0.7500000000000000
  0.8750000000000000  0.1875000000000000  0.9375000000000000
  0.3125000000000000  0.1875000000000000  0.7500000000000000
  0.7500000000000000  0.9375000000000000  0.5625000000000000
  0.1875000000000000  0.9375000000000000  0.8750000000000000
  0.1875000000000000  0.7500000000000000  0.3125000000000000
  0.5625000000000000  0.7500000000000000  0.9375000000000000
  0.3125000000000000  0.6250000000000000  0.5625000000000000
  0.9375000000000000  0.8750000000000000  0.1875000000000000
  0.2500000000000000  0.3750000000000000  0.1250000000000000
  0.1250000000000000  0.3750000000000000  0.7500000000000000
  0.7500000000000000  0.1250000000000000  0.3750000000000000
  0.3750000000000000  0.1250000000000000  0.2500000000000000
  0.1250000000000000  0.2500000000000000  0.3750000000000000
  0.3750000000000000  0.7500000000000000  0.1250000000000000
  0.7500000000000000  0.6250000000000000  0.8750000000000000
  0.8750000000000000  0.6250000000000000  0.2500000000000000
  0.2500000000000000  0.8750000000000000  0.6250000000000000
  0.6250000000000000  0.8750000000000000  0.7500000000000000
  0.8750000000000000  0.7500000000000000  0.6250000000000000
  0.6250000000000000  0.2500000000000000  0.8750000000000000
  0.0000000000000000  0.0000000000000000  0.0000000000000000
  0.0000000000000000  0.0000000000000000  0.5000000000000000
  0.5000000000000000  0.0000000000000000  0.5000000000000000
  0.5000000000000000  0.0000000000000000  0.0000000000000000
  0.0000000000000000  0.5000000000000000  0.5000000000000000
  0.5000000000000000  0.5000000000000000  0.5000000000000000
  0.5000000000000000  0.5000000000000000  0.0000000000000000
  0.0000000000000000  0.5000000000000000  0.0000000000000000
  0.3045800000000000  0.4785900000000000  0.3852900000000000
  0.1740100000000000  0.4785900000000000  0.5933000000000000
  0.5933000000000000  0.9192900000000001  0.1147100000000000
  0.3259900000000000  0.9192900000000001  0.3045800000000000
  0.9067000000000000  0.0214100000000000  0.3259900000000000
  0.1147100000000000  0.0214100000000000  0.1954200000000000
  0.1954200000000000  0.5807099999999999  0.1740100000000000
  0.3852900000000000  0.5807099999999999  0.9067000000000000
  0.3852900000000000  0.3045800000000000  0.4785900000000000
  0.9192900000000001  0.3045800000000000  0.3259900000000000
  0.1147100000000000  0.5933000000000000  0.9192900000000001
  0.4785900000000000  0.5933000000000000  0.1740100000000000
  0.3259900000000000  0.9067000000000000  0.0214100000000000
  0.5807099999999999  0.9067000000000000  0.3852900000000000
  0.1740100000000000  0.1954200000000000  0.5807099999999999
  0.0214100000000000  0.1954200000000000  0.1147100000000000
  0.4785900000000000  0.3852900000000000  0.3045800000000000
  0.9067000000000000  0.3852900000000000  0.5807099999999999
  0.9192900000000001  0.1147100000000000  0.5933000000000000
  0.1954200000000000  0.1147100000000000  0.0214100000000000
  0.0214100000000000  0.3259900000000000  0.9067000000000000
  0.3045800000000000  0.3259900000000000  0.9192900000000001
  0.5807099999999999  0.1740100000000000  0.1954200000000000
  0.5933000000000000  0.1740100000000000  0.4785900000000000
  0.6954200000000000  0.5214100000000000  0.6147100000000000
  0.8259900000000000  0.5214100000000000  0.4067000000000000
  0.4067000000000000  0.0807100000000000  0.8852900000000000
  0.6740100000000000  0.0807100000000000  0.6954200000000000
  0.0933000000000000  0.9785900000000000  0.6740100000000000
  0.8852900000000000  0.9785900000000000  0.8045800000000000
  0.8045800000000000  0.4192900000000000  0.8259900000000000
  0.6147100000000000  0.4192900000000000  0.0933000000000000
  0.6147100000000000  0.6954200000000000  0.5214100000000000
  0.0807100000000000  0.6954200000000000  0.6740100000000000
  0.8852900000000000  0.4067000000000000  0.0807100000000000
  0.5214100000000000  0.4067000000000000  0.8259900000000000
  0.6740100000000000  0.0933000000000000  0.9785900000000000
  0.4192900000000000  0.0933000000000000  0.6147100000000000
  0.8259900000000000  0.8045800000000000  0.4192900000000000
  0.9785900000000000  0.8045800000000000  0.8852900000000000
  0.5214100000000000  0.6147100000000000  0.6954200000000000
  0.0933000000000000  0.6147100000000000  0.4192900000000000
  0.0807100000000000  0.8852900000000000  0.4067000000000000
  0.8045800000000000  0.8852900000000000  0.9785900000000000
  0.9785900000000000  0.6740100000000000  0.0933000000000000
  0.6954200000000000  0.6740100000000000  0.0807100000000000
  0.4192900000000000  0.8259900000000000  0.8045800000000000
  0.4067000000000000  0.8259900000000000  0.5214100000000000
