ALGO = Normal
EDIFF = 1e-07
EDIFFG = 1e-05
ENCUT = 520
IBRION = -1
ISIF = 3
ISMEAR = 0
ISPIN = 1
ISYM = -1
LCHARG = False
LORBIT = 11
LWAVE = True
NBANDS = 13
NELM = 200
NELMIN = 4
NPAR = 4
NSW = 0
POTIM = 0.5
PREC = Accurate
SIGMA = 0.1
