Cs3 Li1 Cl4
1.0
8.400000 0.000000 0.000000
0.000000 8.400000 0.000000
0.000000 0.000000 4.200000
Cs Cl Li
3 4 1
direct
0.010000 0.500000 0.000000 Cs
0.500000 0.000000 0.000000 Cs
0.500000 0.500000 0.000000 Cs
0.250000 0.250000 0.500000 Cl
0.250000 0.750000 0.500000 Cl
0.750000 0.250000 0.500000 Cl
0.750000 0.750000 0.500000 Cl
0.000000 0.000000 0.000000 Li
