&GLOBAL
	PROJECT CP2K_PROJECT
	RUN_TYPE GEO_OPT
	PRINT_LEVEL MEDIUM
&END GLOBAL
&MOTION
	&GEO_OPT
		TYPE MINIMIZATION
		MAX_DR 0.001
		MAX_FORCE 0.001
		RMS_DR 0.001
		MAX_ITER 200
		OPTIMIZER CG
		&CG
			MAX_STEEP_STEPS 0
			RESTART_LIMIT 0.9
		&END CG
	&END GEO_OPT
&END MOTION
&FORCE_EVAL
	METHOD QUICKSTEP
	&DFT
		&MGRID
			NGRIDS 4
			CUTOFF 600
			REL_CUTOFF 60
		&END MGRID
		&QS
			METHOD GPW
			EPS_DEFAULT 1e-07
			EXTRAPOLATION ASPC
		&END QS
		&SCF
			SCF_GUESS ATOMIC
			EPS_SCF 1e-05
			MAX_SCF 50
		&END SCF
		BASIS_SET_FILENAME GTH_BASIS_SETS
		POTENTIAL_FILE_NAME GTH_POTENTIALS
		METHOD GPW
		EPS_DEFAULT 1e-07
		EXTRAPOLATION ASPC
	&END DFT
	&SUBSYS
		&COORDS
			Si 3.9070479700000003 2.762700115 6.767205585
			Si 0.55814971 0.394671445 0.966743655
		&END COORDS
		&CELL
			A 3.348898 0.000000 1.933487

			B 1.116299 3.157372 1.933487

			C 0.000000 0.000000 3.866975

		&END CELL
		&KIND Si
			Element Si
			BASIS_SET DZVP-GTH-q4
			POTENTIAL GTH-PBE-q4
		&END KIND
	&END SUBSYS
&END FORCE_EVAL
