$cell vectors                           
   1.00000000000000     
     5.7571823508220552    0.0000000000000000    0.0000000000000000
     0.0000000000000000    5.1410512363124860    0.0000000000000000
     0.0000000000000000    0.0000000000000000    6.8086137765895253
   4   8
Direct
  0.0000000000000000  0.0000000000000000  0.0000000000000000
  0.5000000000000000  0.5000000000000000  0.0000000000000000
  0.0000000000000000  0.5000000000000000  0.5000000000000000
  0.5000000000000000  0.0000000000000000  0.5000000000000000
  0.0000000000000000  0.1836759961518178  0.1013702123844488
  0.5000000000000000  0.6836759961518176  0.1013702123844488
  0.0000000000000000  0.8163240038481824  0.8986297876155513
  0.5000000000000000  0.3163240038481822  0.8986297876155513
  0.0000000000000000  0.3163240038481822  0.6013702123844486
  0.5000000000000000  0.8163240038481824  0.6013702123844486
  0.0000000000000000  0.6836759961518176  0.3986297876155512
  0.5000000000000000  0.1836759961518178  0.3986297876155512
 
  0.00000000E+00  0.00000000E+00  0.00000000E+00
  0.00000000E+00  0.00000000E+00  0.00000000E+00
  0.00000000E+00  0.00000000E+00  0.00000000E+00
  0.00000000E+00  0.00000000E+00  0.00000000E+00
  0.00000000E+00  0.00000000E+00  0.00000000E+00
  0.00000000E+00  0.00000000E+00  0.00000000E+00
  0.00000000E+00  0.00000000E+00  0.00000000E+00
  0.00000000E+00  0.00000000E+00  0.00000000E+00
  0.00000000E+00  0.00000000E+00  0.00000000E+00
  0.00000000E+00  0.00000000E+00  0.00000000E+00
  0.00000000E+00  0.00000000E+00  0.00000000E+00
  0.00000000E+00  0.00000000E+00  0.00000000E+00
