$cell vectors
1.0
 11.5099945840642164    0.0000000000000000    0.0000000000000000
  0.0000000000000000    4.3689979442030040    0.0000000000000000
  0.0000000000000000    0.0000000000000000    3.5629983234596674
 4 10
Direct
  0.1486999999999997    0.1085999999999996    0.0000000000000000 # V1
  0.3513000000000000    0.8913999999999992    0.5000000000000001 # V2
  0.6486999999999999    0.8913999999999992    0.5000000000000001 # V3
  0.8512999999999997    0.1085999999999996    0.0000000000000000 # V4
  0.1460000000000001    0.4712999999999998    0.0000000000000000 # O1
  0.1808999999999999    0.0025999999999996    0.5000000000000001 # O2
  0.0000000000000000    0.9969999999999992    0.0000000000000000 # O3
  0.3540000000000001    0.5287000000000002    0.5000000000000001 # O4
  0.3190999999999999    0.9973999999999993    0.0000000000000000 # O5
  0.4999999999999997    0.0029999999999995    0.5000000000000001 # O6
  0.6459999999999997    0.5287000000000002    0.5000000000000001 # O7
  0.6808999999999999    0.9973999999999993    0.0000000000000000 # O8
  0.8539999999999999    0.4712999999999998    0.0000000000000000 # O9
  0.8190999999999997    0.0025999999999996    0.5000000000000001 # O10
