$cell vectors
1.0
  7.4899964756421369    0.0000000000000000    0.0000000000000000
  0.0000000000000000    6.8979967542028611    0.0000000000000000
  0.0000000000000000    0.0000000000000000   10.9419948513319412
 4 4 12
Direct
  0.2552999999999999    0.2499999999999998    0.5865000000000002 # Ba1
  0.2447000000000002    0.7500000000000002    0.0865000000000002 # Ba2
  0.7446999999999995    0.7500000000000002    0.4134999999999999 # Ba3
  0.7552999999999999    0.2500000000000006    0.9134999999999998 # Ba4
  0.5196999999999996    0.2499999999999998    0.2440999999999998 # Te1
  1.0196999999999996    0.2499999999999998    0.2559000000000002 # Te2
 -0.0197000000000003    0.7500000000000002    0.7441000000000003 # Te3
  0.4802999999999998    0.7500000000000002    0.7558999999999997 # Te4
  0.3705999999999997    0.2499999999999998    0.0548000000000002 # S1
  0.3779999999999999    0.5143000000000004    0.3407999999999999 # S2
  0.1220000000000001    0.4857000000000003    0.8407999999999998 # S3
  0.8780000000000000    0.5143000000000004    0.1592000000000001 # S4
  0.8705999999999997    0.2499999999999998    0.4451999999999999 # S5
  0.8780000000000000   -0.0143000000000001    0.1592000000000001 # S6
  0.1294000000000004    0.7500000000000002    0.5548000000000002 # S7
  0.1220000000000001    1.0143000000000002    0.8407999999999998 # S8
  0.6293999999999997    0.7500000000000002    0.9451999999999999 # S9
  0.6220000000000002    1.0143000000000002    0.6592000000000001 # S10
  0.3779999999999999   -0.0143000000000001    0.3407999999999999 # S11
  0.6220000000000002    0.4857000000000003    0.6592000000000001 # S12
