$cell vectors
1.0
  8.8999958121782399    0.0000000000000000    0.0000000000000000
  0.0000000000000000    5.7599972896793989    0.0000000000000000
  0.0000000000000000    0.0000000000000000   13.3299937276781932
 4 8 8 36
Direct
  0.3229999999999999    0.0000000000000000    0.0000000000000000 # Ca1
  0.8229999999999998    0.5000000000000000    0.0000000000000000 # Ca2
  0.6770000000000000    0.0000000000000000    0.4999999999999998 # Ca3
  0.1770000000000001    0.5000000000000000    0.4999999999999998 # Ca4
  0.2499999999999997    0.2500000000000000    0.2499999999999999 # Al1
  0.7499999999999997    0.7500000000000000    0.2499999999999999 # Al2
  0.7500000000000003    0.7500000000000000    0.7500000000000002 # Al3
  0.2500000000000003    0.2500000000000000    0.7500000000000002 # Al4
  0.2500000000000003    0.7500000000000000    0.7500000000000002 # Al5
  0.7500000000000003    0.2500000000000000    0.7500000000000002 # Al6
  0.7499999999999997    0.2500000000000000    0.2499999999999999 # Al7
  0.2500000000000003    0.7500000000000000    0.2499999999999999 # Al8
  0.9799999999999996    0.0000000000000000    0.1150000000000000 # Si1
  0.4800000000000000    0.5000000000000000    0.1150000000000000 # Si2
  0.0200000000000001    0.0000000000000000    0.6150000000000003 # Si3
  0.5200000000000001    0.5000000000000000    0.6150000000000003 # Si4
  0.9799999999999996    0.0000000000000000    0.8850000000000001 # Si5
  0.4800000000000000    0.5000000000000000    0.8850000000000001 # Si6
  0.0200000000000001    0.0000000000000000    0.3850000000000003 # Si7
  0.5200000000000001    0.5000000000000000    0.3850000000000003 # Si8
  0.0270000000000003    0.0000000000000000    0.0000000000000000 # O1
  0.3950000000000002    0.2500000000000000    0.1360000000000000 # O2
  0.8949999999999996    0.2500000000000000    0.1360000000000000 # O3
  0.1350000000000002    0.0000000000000000    0.1919999999999999 # O4
  0.6350000000000001    0.0000000000000000    0.1919999999999999 # O5
  0.5270000000000001    0.5000000000000000    0.0000000000000000 # O6
  0.8949999999999996    0.7500000000000000    0.1360000000000000 # O7
  0.3950000000000002    0.7500000000000000    0.1360000000000000 # O8
  0.6350000000000001    0.5000000000000000    0.1919999999999999 # O9
  0.1350000000000002    0.5000000000000000    0.1919999999999999 # O10
  0.9729999999999998    0.0000000000000000    0.4999999999999998 # O11
  0.6049999999999996    0.7500000000000000    0.6359999999999997 # O12
  0.1050000000000003    0.7500000000000000    0.6359999999999997 # O13
  0.8649999999999998    0.0000000000000000    0.6919999999999997 # O14
  0.3649999999999998    0.0000000000000000    0.6919999999999997 # O15
  0.4729999999999996    0.5000000000000000    0.4999999999999998 # O16
  0.1050000000000003    0.2500000000000000    0.6359999999999997 # O17
  0.6049999999999996    0.2500000000000000    0.6359999999999997 # O18
  0.3649999999999998    0.5000000000000000    0.6919999999999997 # O19
  0.8649999999999998    0.5000000000000000    0.6919999999999997 # O20
  0.3950000000000002    0.7500000000000000    0.8639999999999999 # O21
  0.8950000000000001    0.7500000000000000    0.8639999999999999 # O22
  0.1350000000000002    0.0000000000000000    0.8079999999999997 # O23
  0.6350000000000001    0.0000000000000000    0.8079999999999997 # O24
  0.8950000000000001    0.2500000000000000    0.8639999999999999 # O25
  0.3950000000000002    0.2500000000000000    0.8639999999999999 # O26
  0.6350000000000001    0.5000000000000000    0.8079999999999997 # O27
  0.1350000000000002    0.5000000000000000    0.8079999999999997 # O28
  0.6049999999999996    0.2500000000000000    0.3640000000000001 # O29
  0.1049999999999998    0.2500000000000000    0.3640000000000001 # O30
  0.8649999999999998    0.0000000000000000    0.3079999999999999 # O31
  0.3649999999999998    0.0000000000000000    0.3079999999999999 # O32
  0.1049999999999998    0.7500000000000000    0.3640000000000001 # O33
  0.6049999999999996    0.7500000000000000    0.3640000000000001 # O34
  0.3649999999999998    0.5000000000000000    0.3079999999999999 # O35
  0.8649999999999998    0.5000000000000000    0.3079999999999999 # O36
