$cell vectors
1.0
  9.4949955322058841    0.0000000000000000    0.0000000000000000
  0.0000000000000000   10.1499952240010227    0.0000000000000000
  0.0000000000000000    0.0000000000000000    9.3749955886708989
 4 16 48 8
Direct
  0.5135999999999998    0.3057999999999998    0.2499999999999998 # Cd1
  0.4864000000000001    0.6942000000000002    0.7499999999999994 # Cd2
  0.0135999999999998    0.1941999999999998    0.2499999999999998 # Cd3
  0.9863999999999999    0.8058000000000000    0.7499999999999994 # Cd4
  0.2260000000000003    0.4870000000000002    0.2499999999999998 # P1
  0.2939999999999999    0.1100000000000001    0.4680000000000000 # P2
  0.3039999999999999    0.8980000000000004    0.2499999999999998 # P3
  0.7739999999999998    0.5130000000000002    0.7499999999999994 # P4
  0.7060000000000002    0.8899999999999999    0.5319999999999998 # P5
  0.6959999999999996    0.1020000000000000    0.7499999999999994 # P6
  0.7060000000000002    0.8900000000000002    0.9679999999999999 # P7
  0.2939999999999999    0.1100000000000001    0.0320000000000002 # P8
  0.7259999999999996    0.0130000000000001    0.2499999999999998 # P9
  0.7939999999999999    0.3900000000000001    0.0320000000000002 # P10
  0.8040000000000000    0.6020000000000003    0.2499999999999998 # P11
  0.2740000000000003    0.9870000000000000    0.7499999999999994 # P12
  0.2060000000000002    0.6100000000000004    0.9679999999999999 # P13
  0.1960000000000001    0.3980000000000002    0.7499999999999994 # P14
  0.2060000000000002    0.6100000000000004    0.5319999999999998 # P15
  0.7939999999999999    0.3900000000000001    0.4680000000000000 # P16
  0.1429999999999998    0.3540000000000000    0.2499999999999998 # O1
  0.3910000000000000    0.4940000000000001    0.2499999999999998 # O2
  0.1659999999999999    0.5760000000000002    0.3750000000000001 # O3
  0.8499999999999996    0.5059999999999999    0.3820000000000000 # O4
  0.1459999999999998    0.1210000000000003    0.4490000000000001 # O5
  0.3850000000000001    0.2290000000000000    0.4389999999999998 # O6
  0.1550000000000002    0.8840000000000001    0.2499999999999998 # O7
  0.3920000000000002    0.7780000000000004    0.2499999999999998 # O8
  0.8569999999999998    0.6460000000000004    0.7499999999999994 # O9
  0.6090000000000001    0.5059999999999999    0.7499999999999994 # O10
  0.8339999999999997    0.4240000000000003    0.6249999999999998 # O11
  0.1499999999999999    0.4940000000000001    0.6179999999999999 # O12
  0.8539999999999998    0.8790000000000002    0.5509999999999997 # O13
  0.6149999999999999    0.7710000000000000    0.5609999999999996 # O14
  0.8449999999999999    0.1160000000000003    0.7499999999999994 # O15
  0.6079999999999999    0.2220000000000001    0.7499999999999994 # O16
  0.8339999999999997    0.4240000000000003    0.8749999999999996 # O17
  0.1499999999999999    0.4940000000000001    0.8819999999999996 # O18
  0.8539999999999998    0.8790000000000002    0.9489999999999997 # O19
  0.6149999999999999    0.7710000000000000    0.9390000000000001 # O20
  0.1659999999999999    0.5760000000000002    0.1250000000000002 # O21
  0.8499999999999996    0.5059999999999999    0.1179999999999998 # O22
  0.1459999999999998    0.1209999999999998    0.0510000000000001 # O23
  0.3850000000000001    0.2290000000000000    0.0609999999999999 # O24
  0.6429999999999998    0.1460000000000002    0.2499999999999998 # O25
  0.8910000000000000    0.0060000000000002    0.2499999999999998 # O26
  0.6659999999999999    0.9240000000000000    0.1250000000000002 # O27
  0.3500000000000001    0.9940000000000002    0.1179999999999998 # O28
  0.6459999999999997    0.3790000000000000    0.0510000000000001 # O29
  0.8849999999999996    0.2710000000000002    0.0609999999999999 # O30
  0.6549999999999997    0.6160000000000000    0.2499999999999998 # O31
  0.8919999999999996    0.7219999999999999    0.2499999999999998 # O32
  0.3570000000000003    0.8540000000000004    0.7499999999999994 # O33
  0.1090000000000000    0.9940000000000002    0.7499999999999994 # O34
  0.3340000000000001    0.0759999999999999    0.8749999999999996 # O35
  0.6499999999999999    0.0060000000000002    0.8819999999999996 # O36
  0.3540000000000003    0.6210000000000000    0.9489999999999997 # O37
  0.1149999999999999    0.7290000000000001    0.9390000000000001 # O38
  0.3449999999999998    0.3839999999999999    0.7499999999999994 # O39
  0.1079999999999998    0.2780000000000001    0.7499999999999994 # O40
  0.3340000000000001    0.0759999999999999    0.6249999999999998 # O41
  0.6499999999999999    0.0060000000000002    0.6179999999999999 # O42
  0.3540000000000003    0.6210000000000000    0.5509999999999997 # O43
  0.1149999999999999    0.7290000000000001    0.5609999999999996 # O44
  0.6659999999999999    0.9240000000000000    0.3750000000000001 # O45
  0.3500000000000001    0.9940000000000002    0.3820000000000000 # O46
  0.6459999999999997    0.3790000000000000    0.4490000000000001 # O47
  0.8849999999999996    0.2710000000000002    0.4389999999999998 # O48
  0.0080000000000003    0.8360000000000003    0.3860000000000000 # Li1
  0.9919999999999998    0.1640000000000003    0.6139999999999999 # Li2
  0.9919999999999998    0.1640000000000003    0.8859999999999996 # Li3
  0.0080000000000003    0.8360000000000003    0.1139999999999997 # Li4
  0.5079999999999997    0.6639999999999999    0.1139999999999997 # Li5
  0.4919999999999998    0.3360000000000000    0.8859999999999996 # Li6
  0.4919999999999998    0.3360000000000000    0.6139999999999999 # Li7
  0.5079999999999997    0.6639999999999999    0.3860000000000000 # Li8
