$cell vectors
1.0
  5.3119975004821116    0.0000000000000000    0.0000000000000000
  0.0000000000000000    5.3629974764844848    0.0000000000000000
  0.0000000000000000    0.0000000000000000   11.8689944151397189
 8 4 24
Direct
  0.0000000000000000    0.0000000000000000    0.3557999999999998 # Sm1
  0.0000000000000000    0.0000000000000000    0.6345000000000002 # Sm2
  0.0000000000000000    0.5000000000000004    0.8558000000000002 # Sm3
  0.0000000000000000    0.4999999999999994    0.1345000000000002 # Sm4
  0.5000000000000000    0.0000000000000000    0.8558000000000002 # Sm5
  0.5000000000000000    0.0000000000000000    0.1345000000000002 # Sm6
  0.5000000000000000    0.4999999999999994    0.3557999999999998 # Sm7
  0.5000000000000000    0.4999999999999994    0.6345000000000002 # Sm8
  0.0000000000000000    0.0000000000000000    0.0000000000000000 # Co1
  0.0000000000000000    0.4999999999999994    0.5000000000000000 # Co2
  0.5000000000000000    0.0000000000000000    0.5000000000000000 # Co3
  0.5000000000000000    0.4999999999999994    0.0000000000000000 # Co4
  0.2500000000000000    0.2499999999999997    0.0000000000000000 # O1
  0.0000000000000000    0.0000000000000000    0.1640000000000000 # O2
  0.0000000000000000    0.0000000000000000    0.8364000000000003 # O3
  0.0000000000000000    0.0000000000000000    0.1769999999999998 # O4
  0.0000000000000000    0.0000000000000000    0.8232000000000002 # O5
  0.2500000000000000    0.7500000000000002    0.5000000000000000 # O6
  0.0000000000000000    0.4999999999999994    0.6639999999999999 # O7
  0.0000000000000000    0.4999999999999994    0.3364000000000002 # O8
  0.0000000000000000    0.4999999999999994    0.6769999999999999 # O9
  0.0000000000000000    0.4999999999999994    0.3231999999999998 # O10
  0.7500000000000001    0.2499999999999997    0.5000000000000000 # O11
  0.5000000000000000    0.0000000000000000    0.6639999999999999 # O12
  0.5000000000000000    0.0000000000000000    0.3364000000000002 # O13
  0.5000000000000000    0.0000000000000000    0.6769999999999999 # O14
  0.5000000000000000    0.0000000000000000    0.3231999999999998 # O15
  0.7500000000000001    0.7500000000000002    0.0000000000000000 # O16
  0.5000000000000000    0.4999999999999994    0.1640000000000000 # O17
  0.5000000000000000    0.4999999999999994    0.8364000000000003 # O18
  0.5000000000000000    0.4999999999999994    0.1769999999999998 # O19
  0.5000000000000000    0.4999999999999994    0.8232000000000002 # O20
  0.7500000000000001    0.2499999999999997    0.0000000000000000 # O21
  0.7500000000000001    0.7500000000000002    0.5000000000000000 # O22
  0.2500000000000000    0.2499999999999997    0.5000000000000000 # O23
  0.2500000000000000    0.7500000000000002    0.0000000000000000 # O24
