$cell vectors
1.0
  8.7939958620556631    0.0000000000000000    0.0000000000000000
  0.0000000000000000    9.0249957533605141    0.0000000000000000
  0.0000000000000000    0.0000000000000000   13.0659938519012169
 4 20 56
Direct
  0.7230000000000003    0.3099999999999999    0.0000000000000000 # Nd1
  0.2770000000000004    0.6900000000000001    0.0000000000000000 # Nd2
  0.7230000000000003    0.1900000000000001    0.5000000000000003 # Nd3
  0.2770000000000004    0.8100000000000005    0.5000000000000003 # Nd4
  0.0000000000000000    0.0000000000000000    0.3250000000000002 # P1
  0.2360000000000000    0.4499999999999999    0.3360000000000000 # P2
  0.6870000000000003    0.7460000000000003    0.0000000000000000 # P3
  0.5000000000000003    0.0000000000000000    0.2949999999999999 # P4
  0.0000000000000000    0.0000000000000000    0.6750000000000005 # P5
  0.7640000000000007    0.5500000000000000    0.6640000000000003 # P6
  0.3129999999999998    0.2540000000000003    0.0000000000000000 # P7
  0.5000000000000003    0.0000000000000000    0.7050000000000002 # P8
  0.7640000000000000    0.5500000000000000    0.3360000000000000 # P9
  0.2360000000000000    0.4499999999999999    0.6640000000000003 # P10
  0.0000000000000000    0.5000000000000000    0.1750000000000001 # P11
  0.2360000000000000    0.0500000000000001    0.1639999999999999 # P12
  0.6870000000000003    0.7540000000000003    0.5000000000000003 # P13
  0.5000000000000003    0.5000000000000000    0.2049999999999999 # P14
  0.0000000000000000    0.5000000000000000    0.8250000000000005 # P15
  0.7640000000000007    0.9500000000000007    0.8360000000000003 # P16
  0.3130000000000003    0.2460000000000002    0.5000000000000003 # P17
  0.5000000000000003    0.5000000000000000    0.7950000000000003 # P18
  0.7640000000000007    0.9500000000000007    0.1639999999999999 # P19
  0.2360000000000000    0.0500000000000001    0.8360000000000003 # P20
  0.9200000000000004    0.3809999999999999    0.1200000000000002 # O1
  0.1130000000000004    0.4189999999999998    0.2540000000000000 # O2
  0.2260000000000001    0.5930000000000002    0.3880000000000001 # O3
  0.2139999999999999    0.3119999999999999    0.4060000000000001 # O4
  0.6110000000000005    0.5840000000000005    0.7170000000000003 # O5
  0.4139999999999999    0.6170000000000000    0.8500000000000003 # O6
  0.2900000000000003    0.4150000000000004    0.0000000000000000 # O7
  0.4670000000000004    0.3130000000000002    0.5000000000000003 # O8
  0.0800000000000004    0.6190000000000002    0.8800000000000003 # O9
  0.8870000000000003    0.5810000000000002    0.7460000000000001 # O10
  0.7740000000000007    0.4070000000000003    0.6120000000000000 # O11
  0.7860000000000003    0.6880000000000001    0.5940000000000003 # O12
  0.3890000000000002    0.4160000000000001    0.2830000000000003 # O13
  0.5860000000000001    0.3830000000000000    0.1499999999999999 # O14
  0.7100000000000003    0.5850000000000002    0.0000000000000000 # O15
  0.5329999999999997    0.6870000000000005    0.5000000000000003 # O16
  0.0800000000000004    0.6190000000000002    0.1200000000000002 # O17
  0.8870000000000003    0.5810000000000002    0.2540000000000000 # O18
  0.7740000000000000    0.4070000000000003    0.3880000000000001 # O19
  0.7860000000000003    0.6880000000000001    0.4060000000000001 # O20
  0.3890000000000002    0.4160000000000001    0.7170000000000003 # O21
  0.5860000000000001    0.3830000000000006    0.8500000000000003 # O22
  0.9200000000000004    0.3810000000000005    0.8800000000000003 # O23
  0.1130000000000004    0.4190000000000004    0.7460000000000001 # O24
  0.2260000000000001    0.5930000000000002    0.6120000000000000 # O25
  0.2139999999999999    0.3119999999999999    0.5940000000000003 # O26
  0.6109999999999999    0.5839999999999999    0.2830000000000003 # O27
  0.4139999999999999    0.6170000000000000    0.1499999999999999 # O28
  0.9200000000000004    0.1190000000000001    0.3800000000000001 # O29
  0.1130000000000004    0.0810000000000002    0.2459999999999999 # O30
  0.2260000000000001    0.9070000000000004    0.1120000000000001 # O31
  0.2139999999999999    0.1880000000000001    0.0940000000000001 # O32
  0.6110000000000005    0.9160000000000007    0.7830000000000005 # O33
  0.4139999999999999    0.8830000000000006    0.6500000000000002 # O34
  0.2900000000000003    0.0850000000000002    0.5000000000000003 # O35
  0.4670000000000004    0.1869999999999997    0.0000000000000000 # O36
  0.0800000000000004    0.8810000000000006    0.6200000000000004 # O37
  0.8870000000000003    0.9190000000000004    0.7540000000000003 # O38
  0.7740000000000007    0.0930000000000003    0.8880000000000005 # O39
  0.7860000000000003    0.8120000000000005    0.9060000000000005 # O40
  0.3890000000000002    0.0840000000000005    0.2170000000000001 # O41
  0.5860000000000001    0.1170000000000000    0.3500000000000003 # O42
  0.7100000000000003    0.9150000000000003    0.5000000000000003 # O43
  0.5330000000000004    0.8130000000000002    0.0000000000000000 # O44
  0.0800000000000004    0.8810000000000006    0.3800000000000001 # O45
  0.8870000000000003    0.9190000000000004    0.2459999999999999 # O46
  0.7740000000000000    0.0929999999999997    0.1120000000000001 # O47
  0.7860000000000003    0.8120000000000005    0.0940000000000001 # O48
  0.3890000000000002    0.0840000000000005    0.7830000000000005 # O49
  0.5860000000000001    0.1170000000000000    0.6500000000000002 # O50
  0.9200000000000004    0.1190000000000001    0.6200000000000004 # O51
  0.1130000000000004    0.0810000000000002    0.7540000000000003 # O52
  0.2260000000000001    0.9070000000000004    0.8880000000000005 # O53
  0.2139999999999999    0.1880000000000001    0.9060000000000005 # O54
  0.6110000000000005    0.9160000000000000    0.2170000000000001 # O55
  0.4139999999999999    0.8830000000000006    0.3500000000000003 # O56
