$cell vectors
1.0
 16.7049921395997103    0.0000000000000000    0.0000000000000000
  0.0000000000000000    3.8359981950017663    0.0000000000000000
  0.0000000000000000    0.0000000000000000    8.9279957990030692
 12 14 32
Direct
  0.0870000000000000    0.4999999999999993    0.0490000000000001 # Li1
  0.1710000000000002    0.5000000000000008    0.2380000000000002 # Li2
  0.9810000000000000    0.5000000000000008    0.3910000000000001 # Li3
  0.9129999999999999    0.5000000000000008    0.9510000000000000 # Li4
  0.8290000000000000    0.5000000000000008    0.7619999999999997 # Li5
  0.0190000000000001    0.5000000000000008    0.6090000000000000 # Li6
  0.4130000000000001    0.4999999999999993    0.0490000000000001 # Li7
  0.3290000000000001    0.5000000000000008    0.2380000000000002 # Li8
  0.5189999999999999    0.5000000000000008    0.3910000000000001 # Li9
  0.5870000000000000    0.5000000000000008    0.9510000000000000 # Li10
  0.6710000000000000    0.5000000000000008    0.7619999999999997 # Li11
  0.4810000000000000    0.5000000000000008    0.6090000000000000 # Li12
  0.2500000000000001    0.0000000000000000    0.6871000000000000 # Ta1
  0.1328000000000001    0.0000000000000000    0.3920999999999998 # Ta2
  0.0601000000000001    0.0000000000000000    0.8109000000000001 # Ta3
  0.2500000000000001    0.0386999999999994    0.0531999999999997 # Ta4
  0.7499999999999999    0.0000000000000000    0.3129000000000001 # Ta5
  0.8672000000000000    0.0000000000000000    0.6079000000000002 # Ta6
  0.9399000000000000    0.0000000000000000    0.1891000000000000 # Ta7
  0.7499999999999999    0.9613000000000006    0.9467999999999998 # Ta8
  0.3672000000000001    0.0000000000000000    0.3920999999999998 # Ta9
  0.4399000000000000    0.0000000000000000    0.8109000000000001 # Ta10
  0.2500000000000001    0.9613000000000006    0.0531999999999997 # Ta11
  0.6328000000000003    0.0000000000000000    0.6079000000000002 # Ta12
  0.5601000000000000    0.0000000000000000    0.1891000000000000 # Ta13
  0.7499999999999999    0.0387000000000007    0.9467999999999998 # Ta14
  0.2500000000000001    0.5000000000000008    0.6849999999999999 # O1
  0.1150000000000002    0.5000000000000008    0.4109999999999999 # O2
  0.0560000000000000    0.5000000000000008    0.8090000000000001 # O3
  0.2500000000000001    0.4999999999999993    0.0729999999999999 # O4
  0.1640000000000000    0.0000000000000000    0.1959999999999997 # O5
  0.0129999999999999    0.0000000000000000    0.3450000000000001 # O6
  0.2500000000000001    0.0000000000000000    0.4640000000000000 # O7
  0.1330000000000000    0.0000000000000000    0.6270000000000000 # O8
  0.1750000000000000    0.0000000000000000    0.8890000000000001 # O9
  0.0000000000000000    0.0000000000000000    0.0000000000000000 # O10
  0.7499999999999999    0.5000000000000008    0.3150000000000001 # O11
  0.8850000000000002    0.5000000000000008    0.5890000000000001 # O12
  0.9440000000000001    0.5000000000000008    0.1909999999999999 # O13
  0.7499999999999999    0.5000000000000008    0.9270000000000002 # O14
  0.8360000000000001    0.0000000000000000    0.8040000000000003 # O15
  0.9870000000000001    0.0000000000000000    0.6549999999999998 # O16
  0.7499999999999999    0.0000000000000000    0.5360000000000000 # O17
  0.8670000000000001    0.0000000000000000    0.3729999999999999 # O18
  0.8250000000000000    0.0000000000000000    0.1109999999999999 # O19
  0.3850000000000000    0.5000000000000008    0.4109999999999999 # O20
  0.4439999999999999    0.5000000000000008    0.8090000000000001 # O21
  0.3360000000000001    0.0000000000000000    0.1959999999999997 # O22
  0.4869999999999999    0.0000000000000000    0.3450000000000001 # O23
  0.3669999999999999    0.0000000000000000    0.6270000000000000 # O24
  0.3250000000000002    0.0000000000000000    0.8890000000000001 # O25
  0.5000000000000002    0.0000000000000000    0.0000000000000000 # O26
  0.6150000000000000    0.5000000000000008    0.5890000000000001 # O27
  0.5560000000000002    0.5000000000000008    0.1909999999999999 # O28
  0.6640000000000003    0.0000000000000000    0.8040000000000003 # O29
  0.5130000000000001    0.0000000000000000    0.6549999999999998 # O30
  0.6329999999999999    0.0000000000000000    0.3729999999999999 # O31
  0.6749999999999998    0.0000000000000000    0.1109999999999999 # O32
