POSCAR generated by cell class          
   1.00000000000000     
     5.3672739847803425    0.0000000000000000    0.0000000000000000
     0.0000000000000000    6.5883789814747588    0.0000000000000000
     0.0000000000000000    0.0000000000000000    3.8726073153830897
   4   8
Direct
  0.0000000000000000 -0.0000398395736797  0.2500000000000000
  0.5000000000000000  0.5000398395736797  0.7500000000000000
  0.0000000000000000  0.0000398395736798  0.7500000000000000
  0.5000000000000000  0.4999601604263131  0.2500000000000000
  0.3648332981900670  0.3908864276666857  0.4999790735520644
  0.1351667018099331  0.1091135723333142 -0.0000209264479496
  0.6351667018099542  0.3908864276666857  0.0000209264479427
  0.8648332981900457  0.1091135723333142  0.5000209264479354
  0.6351667018099542  0.6091135723333140  0.5000209264479354
  0.8648332981900457  0.8908864276666859  0.0000209264479427
  0.3648332981900670  0.6091135723333140 -0.0000209264479496
  0.1351667018099331  0.8908864276666859  0.4999790735520644
 
  0.00000000E+00  0.00000000E+00  0.00000000E+00
  0.00000000E+00  0.00000000E+00  0.00000000E+00
  0.00000000E+00  0.00000000E+00  0.00000000E+00
  0.00000000E+00  0.00000000E+00  0.00000000E+00
  0.00000000E+00  0.00000000E+00  0.00000000E+00
  0.00000000E+00  0.00000000E+00  0.00000000E+00
  0.00000000E+00  0.00000000E+00  0.00000000E+00
  0.00000000E+00  0.00000000E+00  0.00000000E+00
  0.00000000E+00  0.00000000E+00  0.00000000E+00
  0.00000000E+00  0.00000000E+00  0.00000000E+00
  0.00000000E+00  0.00000000E+00  0.00000000E+00
  0.00000000E+00  0.00000000E+00  0.00000000E+00
