$cell vectors
1.0
 12.0729943191491973    0.0000000000000000    0.0000000000000000
  0.0000000000000000   19.0229910488838918    0.0000000000000000
  0.0000000000000000    0.0000000000000000    5.8759972350965510
 24 60 8
Direct
  0.1078000000000001    0.0659999999999999    0.0000000000000000 # Sb1
  0.6878000000000002    0.0651000000000000    0.1135000000000003 # Sb2
  0.0926000000000002    0.2069000000000001    0.6316000000000005 # Sb3
  0.6078000000000000    0.5659999999999999    0.0000000000000000 # Sb4
  0.1878000000000002    0.5650999999999999    0.1135000000000003 # Sb5
  0.5926000000000001    0.7068999999999998    0.6316000000000005 # Sb6
  0.8922000000000003    0.9339999999999996    0.0000000000000000 # Sb7
  0.3122000000000002    0.9349000000000000    0.1135000000000003 # Sb8
  0.9074000000000002    0.7930999999999998    0.6316000000000005 # Sb9
  0.3922000000000000    0.4340000000000001    0.0000000000000000 # Sb10
  0.8122000000000001    0.4348999999999998    0.1135000000000003 # Sb11
  0.4073999999999997    0.2930999999999998    0.6316000000000005 # Sb12
  0.8921999999999999    0.0659999999999999    0.5000000000000006 # Sb13
  0.3122000000000002    0.0651000000000000    0.6134999999999998 # Sb14
  0.9074000000000002    0.2069000000000001    0.1315999999999999 # Sb15
  0.3922000000000000    0.5659999999999999    0.5000000000000006 # Sb16
  0.8122000000000001    0.5650999999999999    0.6134999999999998 # Sb17
  0.4074000000000002    0.7068999999999998    0.1315999999999999 # Sb18
  0.1078000000000001    0.9339999999999996    0.5000000000000006 # Sb19
  0.6878000000000002    0.9349000000000000    0.6134999999999998 # Sb20
  0.0926000000000002    0.7930999999999998    0.1315999999999999 # Sb21
  0.6078000000000000    0.4340000000000001    0.5000000000000006 # Sb22
  0.1878000000000002    0.4348999999999998    0.6135000000000008 # Sb23
  0.5926000000000001    0.2930999999999998    0.1315999999999999 # Sb24
  0.0000000000000000    0.0000000000000000    0.8460000000000003 # O1
  0.2422999999999999    0.0000000000000000    0.8880000000000002 # O2
  0.8470000000000002    0.1009999999999999    0.1700000000000003 # O3
  0.0071000000000002    0.1652000000000000    0.8930000000000002 # O4
  0.3085000000000002    0.1674999999999998    0.9396000000000003 # O5
  0.2847000000000001    0.1546999999999999    0.3499999999999999 # O6
  0.4455999999999998    0.2124000000000000    0.2011000000000001 # O7
  0.4236999999999999    0.0878000000000001    0.1626999999999998 # O8
  0.5000000000000000    0.4999999999999999    0.8460000000000003 # O9
  0.7423000000000000    0.4999999999999999    0.8880000000000002 # O10
  0.3470000000000001    0.6009999999999999    0.1700000000000003 # O11
  0.5071000000000002    0.6651999999999999    0.8930000000000002 # O12
  0.8085000000000002    0.6674999999999998    0.9396000000000003 # O13
  0.7847000000000002    0.6546999999999997    0.3499999999999999 # O14
  0.9456000000000003    0.7123999999999999    0.2011000000000001 # O15
  0.9236999999999997    0.5878000000000000    0.1626999999999998 # O16
  0.7577000000000002    0.0000000000000000    0.8880000000000002 # O17
  0.1530000000000000    0.8989999999999997    0.1700000000000003 # O18
  0.9929000000000002    0.8347999999999999    0.8930000000000002 # O19
  0.6915000000000002    0.8324999999999997    0.9396000000000003 # O20
  0.7153000000000005    0.8452999999999998    0.3499999999999999 # O21
  0.5544000000000002    0.7875999999999999    0.2011000000000001 # O22
  0.5763000000000001    0.9121999999999999    0.1626999999999998 # O23
  0.2577000000000001    0.4999999999999999    0.8880000000000012 # O24
  0.6530000000000000    0.3990000000000000    0.1700000000000003 # O25
  0.4929000000000002    0.3347999999999999    0.8930000000000002 # O26
  0.1915000000000002    0.3325000000000001    0.9396000000000003 # O27
  0.2152999999999999    0.3453000000000000    0.3499999999999999 # O28
  0.0544000000000002    0.2876000000000000    0.2011000000000001 # O29
  0.0763000000000001    0.4121999999999998    0.1626999999999998 # O30
  0.0000000000000000    0.0000000000000000    0.3459999999999997 # O31
  0.7577000000000002    0.0000000000000000    0.3879999999999998 # O32
  0.1530000000000000    0.1009999999999999    0.6700000000000007 # O33
  0.9929000000000002    0.1652000000000000    0.3929999999999998 # O34
  0.6915000000000002    0.1674999999999998    0.4396000000000005 # O35
  0.7152999999999999    0.1546999999999999    0.8500000000000004 # O36
  0.5544000000000002    0.2124000000000000    0.7011000000000006 # O37
  0.5763000000000001    0.0878000000000001    0.6627000000000003 # O38
  0.5000000000000000    0.4999999999999999    0.3460000000000006 # O39
  0.2577000000000001    0.4999999999999999    0.3880000000000007 # O40
  0.6530000000000000    0.6009999999999999    0.6700000000000007 # O41
  0.4929000000000002    0.6651999999999999    0.3929999999999998 # O42
  0.1915000000000002    0.6674999999999998    0.4396000000000005 # O43
  0.2152999999999999    0.6546999999999997    0.8500000000000004 # O44
  0.0544000000000002    0.7123999999999999    0.7011000000000006 # O45
  0.0763000000000001    0.5878000000000000    0.6627000000000003 # O46
  0.2422999999999999    0.0000000000000000    0.3880000000000007 # O47
  0.8470000000000002    0.8989999999999997    0.6700000000000007 # O48
  0.0071000000000002    0.8347999999999999    0.3929999999999998 # O49
  0.3085000000000002    0.8324999999999997    0.4396000000000005 # O50
  0.2847000000000001    0.8452999999999998    0.8500000000000004 # O51
  0.4456000000000003    0.7875999999999999    0.7011000000000006 # O52
  0.4236999999999999    0.9121999999999999    0.6627000000000003 # O53
  0.7423000000000000    0.4999999999999999    0.3880000000000007 # O54
  0.3470000000000001    0.3990000000000000    0.6700000000000007 # O55
  0.5071000000000002    0.3347999999999999    0.3929999999999998 # O56
  0.8085000000000002    0.3324999999999997    0.4396000000000005 # O57
  0.7847000000000002    0.3453000000000000    0.8500000000000004 # O58
  0.9456000000000003    0.2876000000000000    0.7011000000000006 # O59
  0.9236999999999997    0.4121999999999998    0.6627000000000003 # O60
  0.3665000000000000    0.1554000000000000    0.1588999999999999 # S1
  0.8665000000000000    0.6553999999999999    0.1588999999999999 # S2
  0.6335000000000000    0.8445999999999998    0.1588999999999999 # S3
  0.1335000000000000    0.3445999999999999    0.1588999999999999 # S4
  0.6335000000000000    0.1554000000000000    0.6589000000000004 # S5
  0.1335000000000000    0.6553999999999999    0.6589000000000004 # S6
  0.3665000000000000    0.8445999999999998    0.6589000000000004 # S7
  0.8665000000000000    0.3445999999999999    0.6589000000000004 # S8
