$cell vectors
1.0
  5.4059974562511863    0.0000000000000000    0.0000000000000000
  0.0000000000000000    5.3699974731906908    0.0000000000000000
  0.0000000000000000    0.0000000000000000   13.1499938123757083
 8 4 16
Direct
  0.0069999999999996    0.0000000000000000    0.3620000000000002 # La1
  0.0070000000000006    0.5000000000000000    0.8620000000000002 # La2
  0.9930000000000001    0.0000000000000000    0.6379999999999999 # La3
  0.9930000000000001    0.5000000000000000    0.1379999999999999 # La4
  0.4930000000000003    0.0000000000000000    0.8620000000000002 # La5
  0.4930000000000003    0.5000000000000000    0.3620000000000002 # La6
  0.5069999999999996    0.0000000000000000    0.1379999999999999 # La7
  0.5069999999999996    0.5000000000000000    0.6379999999999999 # La8
  0.0000000000000000    0.0000000000000000    0.0000000000000000 # Cu1
  0.0000000000000000    0.5000000000000000    0.5000000000000000 # Cu2
  0.5000000000000000    0.0000000000000000    0.5000000000000000 # Cu3
  0.5000000000000000    0.5000000000000000    0.0000000000000000 # Cu4
  0.2499999999999995    0.2499999999999995    0.0070000000000000 # O1
  0.9689999999999996    0.0000000000000000    0.1870000000000000 # O2
  0.2500000000000004    0.7500000000000006    0.5070000000000001 # O3
  0.9689999999999996    0.5000000000000000    0.6870000000000001 # O4
  0.7500000000000003    0.7500000000000006    0.9930000000000002 # O5
  0.0310000000000002    0.0000000000000000    0.8130000000000002 # O6
  0.7499999999999993    0.2500000000000004    0.4930000000000000 # O7
  0.0310000000000002    0.5000000000000000    0.3130000000000001 # O8
  0.5310000000000001    0.0000000000000000    0.6870000000000001 # O9
  0.5310000000000001    0.5000000000000000    0.1870000000000000 # O10
  0.4689999999999996    0.0000000000000000    0.3130000000000001 # O11
  0.4689999999999996    0.5000000000000000    0.8130000000000002 # O12
  0.7499999999999993    0.7500000000000006    0.4930000000000000 # O13
  0.7500000000000003    0.2500000000000004    0.9930000000000002 # O14
  0.2500000000000004    0.2500000000000004    0.5070000000000001 # O15
  0.2500000000000004    0.7499999999999996    0.0070000000000000 # O16
