$cell vectors
1.0
  9.9809953035225867    0.0000000000000000    0.0000000000000000
  0.0000000000000000    5.7809972797980231    0.0000000000000000
  0.0000000000000000    0.0000000000000000   10.5219950489594840
 4 4 32
Direct
  0.0000000000000000    0.6039999999999995    0.2500000000000001 # Nb1
  0.0000000000000000    0.3960000000000005    0.7499999999999999 # Nb2
  0.4999999999999999    0.3959999999999997    0.2500000000000001 # Nb3
  0.4999999999999999    0.6039999999999995    0.7499999999999999 # Nb4
  0.2500000000000000    0.0000000000000000    1.0347999999999997 # Cl1
  0.7499999999999994    0.0000000000000000   -0.0347999999999998 # Cl2
  0.7499999999999994    0.0000000000000000    0.4652000000000000 # Cl3
  0.2500000000000000    0.0000000000000000    0.5348000000000001 # Cl4
  0.1123000000000000    0.3812999999999995    0.1832000000000003 # F1
  0.1118000000000001    0.8490000000000001    0.1786000000000000 # F2
 -0.1020000000000002    0.6280000000000001    0.1023000000000002 # F3
  0.1516000000000002   -0.1110000000000002    0.9360000000000002 # F4
 -0.1123000000000000    0.6186999999999997    0.8168000000000002 # F5
 -0.1118000000000001    0.1510000000000001    0.8213999999999999 # F6
  0.1020000000000002    0.3719999999999999    0.8976999999999998 # F7
  0.8483999999999999    0.1110000000000002    0.0640000000000002 # F8
  0.3877000000000000    0.6186999999999997    0.1832000000000003 # F9
  0.3881999999999999    0.1510000000000001    0.1786000000000000 # F10
  0.6019999999999996    0.3719999999999999    0.1023000000000002 # F11
  0.3483999999999998    0.1110000000000002    0.9360000000000002 # F12
  0.6123000000000000    0.3813000000000004    0.8168000000000002 # F13
  0.6118000000000001    0.8490000000000001    0.8213999999999999 # F14
  0.3979999999999998    0.6280000000000001    0.8976999999999998 # F15
  0.6515999999999998   -0.1110000000000002    0.0640000000000002 # F16
  0.6123000000000000    0.6186999999999997    0.3168000000000000 # F17
  0.6117999999999996    0.1510000000000001    0.3214000000000002 # F18
  0.3979999999999998    0.3719999999999999    0.3977000000000001 # F19
  0.6515999999999998    0.1110000000000002    0.5639999999999999 # F20
  0.3877000000000000    0.3813000000000004    0.6831999999999999 # F21
  0.3881999999999999    0.8490000000000001    0.6786000000000002 # F22
  0.6019999999999996    0.6280000000000001    0.6022999999999999 # F23
  0.3483999999999998   -0.1110000000000002    0.4360000000000000 # F24
 -0.1123000000000000    0.3812999999999995    0.3168000000000000 # F25
 -0.1118000000000001    0.8490000000000001    0.3214000000000002 # F26
  0.1020000000000002    0.6280000000000001    0.3977000000000001 # F27
  0.8483999999999999   -0.1110000000000002    0.5639999999999999 # F28
  0.1123000000000000    0.6186999999999997    0.6831999999999999 # F29
  0.1118000000000001    0.1510000000000001    0.6786000000000002 # F30
 -0.1019999999999997    0.3719999999999999    0.6022999999999999 # F31
  0.1516000000000002    0.1110000000000002    0.4360000000000000 # F32
