$cell vectors
1.0
  5.9119972181570528    0.0000000000000000    0.0000000000000000
  0.0000000000000000    5.9449972026291711    0.0000000000000000
  0.0000000000000000    0.0000000000000000    8.3879960530956250
 12 16
Direct
  0.0000000000000000    0.2500000000000005    0.1249999999999999 # Fe1
  0.2500000000000000    0.2500000000000005    0.7500000000000002 # Fe2
  0.0000000000000000    0.0000000000000000    0.4999999999999997 # Fe3
  0.5000000000000000    0.7500000000000004    0.6249999999999994 # Fe4
  0.5000000000000000    0.5000000000000000    0.0000000000000000 # Fe5
  0.5000000000000000    0.2500000000000005    0.3749999999999998 # Fe6
  0.7499999999999998    0.2500000000000005    0.7500000000000002 # Fe7
  0.2500000000000000    0.7500000000000004    0.2499999999999998 # Fe8
  0.5000000000000000    0.0000000000000000    0.0000000000000000 # Fe9
  0.0000000000000000    0.7500000000000004    0.8750000000000001 # Fe10
  0.7499999999999998    0.7500000000000004    0.2499999999999998 # Fe11
  0.0000000000000000    0.5000000000000000    0.4999999999999997 # Fe12
  0.0000000000000000    0.5237000000000001    0.2444999999999999 # O1
  0.2445000000000002    0.2500000000000005    0.9850000000000000 # O2
  0.5000000000000000    0.0237000000000000    0.7445000000000002 # O3
  0.0000000000000000    0.4763000000000001    0.7555000000000002 # O4
  0.7554999999999997    0.7500000000000004    0.0150000000000000 # O5
  0.5000000000000000    0.9763000000000001    0.2554999999999998 # O6
  0.2554999999999997    0.2500000000000005    0.5149999999999997 # O7
  0.0000000000000000    0.9763000000000001    0.2444999999999999 # O8
  0.7554999999999997    0.2500000000000005    0.9850000000000000 # O9
  0.2554999999999997    0.7500000000000004    0.4849999999999997 # O10
  0.0000000000000000    0.0237000000000000    0.7555000000000002 # O11
  0.2445000000000002    0.7500000000000004    0.0150000000000000 # O12
  0.5000000000000000    0.5237000000000001    0.2554999999999998 # O13
  0.7444999999999992    0.2500000000000005    0.5149999999999997 # O14
  0.5000000000000000    0.4763000000000001    0.7445000000000002 # O15
  0.7444999999999992    0.7500000000000004    0.4849999999999997 # O16
