$cell vectors
1.0
  5.8839972313322217    0.0000000000000000    0.0000000000000000
  0.0000000000000000   11.7679944626644364    0.0000000000000000
  0.0000000000000000    0.0000000000000000    8.2199961321466422
 8 8 24
Direct
  0.7059999999999996    0.1270000000000000    0.0000000000000000 # Pb1
  0.7059999999999996    0.1270000000000000    0.5000000000000003 # Pb2
  0.2940000000000003    0.8730000000000003    0.0000000000000000 # Pb3
  0.2940000000000003    0.8730000000000003    0.5000000000000003 # Pb4
  0.7939999999999998    0.6270000000000003    0.0000000000000000 # Pb5
  0.7939999999999998    0.6270000000000003    0.5000000000000003 # Pb6
  0.2060000000000002    0.3730000000000003    0.0000000000000000 # Pb7
  0.2060000000000002    0.3730000000000003    0.5000000000000003 # Pb8
  0.2430000000000001    0.1240000000000001    0.2500000000000002 # Zr1
  0.2430000000000001    0.1240000000000001    0.7499999999999998 # Zr2
  0.7570000000000000    0.8760000000000002    0.2500000000000002 # Zr3
  0.7570000000000000    0.8760000000000002    0.7499999999999998 # Zr4
  0.2570000000000003    0.6240000000000004    0.2500000000000002 # Zr5
  0.2570000000000003    0.6240000000000004    0.7499999999999998 # Zr6
  0.7429999999999997    0.3760000000000003    0.2500000000000002 # Zr7
  0.7429999999999997    0.3760000000000003    0.7499999999999998 # Zr8
  0.2700000000000004    0.1500000000000002    0.9799999999999996 # O1
  0.2699999999999995    0.1500000000000002    0.4800000000000000 # O2
  0.0400000000000004    0.2700000000000002    0.3000000000000003 # O3
  0.0400000000000004    0.2700000000000002    0.7499999999999998 # O4
  0.0000000000000000    0.5000000000000003    0.2500000000000002 # O5
  0.0000000000000000    0.5000000000000003    0.7999999999999999 # O6
  0.0000000000000000    0.0000000000000000    0.2500000000000002 # O7
  0.0000000000000000    0.0000000000000000    0.7999999999999999 # O8
  0.7299999999999996    0.8500000000000005    0.9799999999999996 # O9
  0.7299999999999996    0.8500000000000001    0.4800000000000000 # O10
  0.9599999999999996    0.7300000000000001    0.3000000000000003 # O11
  0.9599999999999996    0.7300000000000001    0.7499999999999998 # O12
  0.2300000000000000    0.6500000000000001    0.9799999999999996 # O13
  0.2300000000000000    0.6500000000000001    0.4800000000000000 # O14
  0.4600000000000000    0.7700000000000001    0.3000000000000003 # O15
  0.4600000000000000    0.7700000000000001    0.7499999999999998 # O16
  0.4999999999999996    0.0000000000000000    0.2500000000000002 # O17
  0.4999999999999996    0.0000000000000000    0.7999999999999999 # O18
  0.4999999999999996    0.5000000000000003    0.2500000000000002 # O19
  0.4999999999999996    0.5000000000000003    0.7999999999999999 # O20
  0.7700000000000000    0.3500000000000001    0.9799999999999996 # O21
  0.7700000000000000    0.3500000000000001    0.4800000000000000 # O22
  0.5399999999999999    0.2300000000000001    0.3000000000000003 # O23
  0.5399999999999999    0.2300000000000001    0.7499999999999998 # O24
