$cell vectors
1.0
  9.5179955213834209    0.0000000000000000    0.0000000000000000
  0.0000000000000000    9.7489954126882719    0.0000000000000000
  0.0000000000000000    0.0000000000000000    8.0309962210790342
 12 8 44 12
Direct
  0.0000000000000000    0.0000000000000000    0.0000000000000000 # Fe1
  0.0483000000000000    0.1137000000000001    0.6369000000000006 # Fe2
  0.9517000000000002    0.8863000000000000    0.3631000000000001 # Fe3
  0.5000000000000003    0.0000000000000000    0.5000000000000003 # Fe4
  0.4517000000000002    0.8863000000000000    0.1369000000000002 # Fe5
  0.5483000000000005    0.1137000000000001    0.8631000000000004 # Fe6
  0.0000000000000000    0.5000000000000000    0.0000000000000000 # Fe7
  0.0483000000000000    0.3863000000000000    0.3631000000000001 # Fe8
  0.9517000000000002    0.6137000000000001    0.6369000000000006 # Fe9
  0.5000000000000003    0.5000000000000000    0.5000000000000003 # Fe10
  0.4517000000000002    0.6137000000000001    0.8631000000000004 # Fe11
  0.5483000000000005    0.3863000000000000    0.1369000000000002 # Fe12
  0.2092000000000003    0.1057000000000000    0.2859000000000001 # P1
  0.7908000000000003    0.8942999999999999    0.7141000000000000 # P2
  0.2907999999999999    0.8942999999999999    0.7859000000000005 # P3
  0.7092000000000002    0.1057000000000000    0.2141000000000003 # P4
  0.2092000000000003    0.3943000000000001    0.7141000000000000 # P5
  0.7908000000000003    0.6057000000000000    0.2859000000000001 # P6
  0.2907999999999999    0.6057000000000000    0.2141000000000003 # P7
  0.7092000000000002    0.3943000000000001    0.7859000000000005 # P8
  0.2100000000000000    0.2596000000000002    0.3318000000000001 # O1
  0.1124000000000002    0.0296000000000003    0.4143000000000001 # O2
  0.3596000000000000    0.0452999999999998    0.2984999999999998 # O3
  0.1580999999999999    0.0879000000000002    0.1091000000000002 # O4
  0.9480000000000000    0.2500000000000000    0.5000000000000003 # O5
  0.9710000000000003    0.3447000000000002    0.1502999999999999 # O6
  0.7900000000000001    0.7404000000000004    0.6681999999999999 # O7
  0.8876000000000006    0.9704000000000003    0.5856999999999999 # O8
  0.6404000000000006    0.9547000000000003    0.7015000000000002 # O9
  0.8419000000000002    0.9121000000000004    0.8909000000000005 # O10
  0.0520000000000001    0.7500000000000000    0.5000000000000003 # O11
  0.0289999999999999    0.6553000000000004    0.8497000000000001 # O12
  0.2900000000000003    0.7404000000000004    0.8318000000000005 # O13
  0.3876000000000002    0.9704000000000003    0.9143000000000004 # O14
  0.1404000000000003    0.9547000000000003    0.7985000000000002 # O15
  0.3419000000000004    0.9121000000000004    0.6091000000000000 # O16
  0.5520000000000005    0.7500000000000000    0.0000000000000000 # O17
  0.5290000000000002    0.6553000000000004    0.6503000000000001 # O18
  0.7100000000000004    0.2596000000000002    0.1682000000000002 # O19
  0.6124000000000005    0.0296000000000003    0.0857000000000002 # O20
  0.8596000000000003    0.0452999999999998    0.2014999999999999 # O21
  0.6581000000000004    0.0879000000000002    0.3909000000000001 # O22
  0.4480000000000002    0.2500000000000000    0.0000000000000000 # O23
  0.4710000000000005    0.3447000000000002    0.3496999999999998 # O24
  0.2100000000000000    0.2404000000000004    0.6681999999999999 # O25
  0.1124000000000002    0.4704000000000003    0.5857000000000004 # O26
  0.3596000000000000    0.4547000000000003    0.7015000000000002 # O27
  0.1580999999999999    0.4121000000000003    0.8909000000000005 # O28
  0.9710000000000003    0.1553000000000003    0.8497000000000001 # O29
  0.7900000000000001    0.7596000000000002    0.3318000000000001 # O30
  0.8876000000000006    0.5296000000000002    0.4143000000000001 # O31
  0.6404000000000002    0.5453000000000005    0.2984999999999998 # O32
  0.8419000000000002    0.5879000000000003    0.1091000000000002 # O33
  0.0289999999999999    0.8447000000000003    0.1502999999999999 # O34
  0.2900000000000003    0.7596000000000002    0.1682000000000002 # O35
  0.3876000000000002    0.5296000000000002    0.0857000000000002 # O36
  0.1404000000000003    0.5453000000000005    0.2014999999999999 # O37
  0.3419000000000004    0.5879000000000003    0.3909000000000001 # O38
  0.5290000000000002    0.8447000000000003    0.3496999999999998 # O39
  0.7100000000000004    0.2404000000000004    0.8318000000000005 # O40
  0.6124000000000005    0.4704000000000003    0.9143000000000004 # O41
  0.8596000000000003    0.4547000000000003    0.7985000000000002 # O42
  0.6581000000000004    0.4121000000000003    0.6091000000000000 # O43
  0.4710000000000005    0.1553000000000003    0.6503000000000001 # O44
  0.8370000000000003    0.2500000000000000    0.5000000000000003 # H1
  0.8690000000000000    0.3109999999999999    0.1580000000000001 # H2
  0.1630000000000004    0.7500000000000000    0.5000000000000003 # H3
  0.1310000000000001    0.6890000000000006    0.8420000000000005 # H4
  0.6630000000000001    0.7500000000000000    0.0000000000000000 # H5
  0.6310000000000006    0.6890000000000006    0.6580000000000005 # H6
  0.3370000000000000    0.2500000000000000    0.0000000000000000 # H7
  0.3690000000000002    0.3109999999999999    0.3420000000000002 # H8
  0.8690000000000000    0.1890000000000001    0.8420000000000005 # H9
  0.1310000000000001    0.8110000000000001    0.1580000000000001 # H10
  0.6310000000000006    0.8110000000000001    0.3420000000000002 # H11
  0.3690000000000002    0.1890000000000001    0.6580000000000005 # H12
