$cell vectors
1.0
  8.8619958300588255    0.0000000000000000    0.0000000000000000
  0.0000000000000000   10.1869952065909786    0.0000000000000000
  0.0000000000000000    0.0000000000000000    7.6379964060019541
 4 4 12 36
Direct
  0.0810000000000000    0.2589999999999997    0.2549999999999998 # K1
  0.9189999999999999    0.7410000000000001    0.2549999999999998 # K2
  0.9189999999999999    0.7590000000000000    0.7549999999999999 # K3
  0.0810000000000000    0.2409999999999999    0.7549999999999999 # K4
  0.5000000000000000    0.0000000000000000    0.2520000000000003 # Cu1
  0.5000000000000000    0.0000000000000000    0.7519999999999997 # Cu2
  0.5000000000000000    0.5000000000000002    0.7519999999999997 # Cu3
  0.5000000000000000    0.5000000000000002    0.2520000000000003 # Cu4
  0.4291999999999999    0.2520000000000000    0.9970000000000000 # Ta1
  0.8021000000000001    0.4359999999999998    0.9819999999999999 # Ta2
  0.7991000000000001    0.0613000000000000    0.9880000000000001 # Ta3
  0.5708000000000001    0.7479999999999999    0.9970000000000000 # Ta4
  0.1978999999999999    0.5639999999999999    0.9819999999999999 # Ta5
  0.2008999999999999    0.9386999999999998    0.9880000000000001 # Ta6
  0.5708000000000001    0.7519999999999998    0.4969999999999999 # Ta7
  0.1978999999999999    0.9360000000000001    0.4819999999999997 # Ta8
  0.2008999999999999    0.5613000000000002    0.4880000000000000 # Ta9
  0.4291999999999999    0.2480000000000002    0.4969999999999999 # Ta10
  0.8021000000000001    0.0640000000000003    0.4819999999999997 # Ta11
  0.7991000000000001    0.4387000000000001    0.4880000000000000 # Ta12
  0.0000000000000000    0.0000000000000000    0.0000000000000000 # O1
  0.0000000000000000    0.0000000000000000    0.5000000000000000 # O2
  0.2600000000000001    0.1179999999999999    0.9689999999999996 # O3
  0.2589999999999998    0.4030000000000002    0.0610000000000004 # O4
  0.5749999999999998    0.3840000000000000    0.0580000000000002 # O5
  0.5760000000000002    0.3920000000000000    0.4609999999999999 # O6
  0.8750000000000001    0.2529999999999998    0.0059999999999997 # O7
  0.4060000000000002    0.1860000000000000    0.2579999999999999 # O8
  0.1710000000000002    0.5890000000000002    0.2490000000000001 # O9
  0.2710000000000000    0.5400000000000003    0.7569999999999997 # O10
  0.7400000000000000    0.8820000000000001    0.9689999999999996 # O11
  0.7410000000000001    0.5969999999999998    0.0610000000000004 # O12
  0.4250000000000001    0.6160000000000000    0.0580000000000002 # O13
  0.4239999999999999    0.6079999999999999    0.4609999999999999 # O14
  0.1249999999999999    0.7470000000000000    0.0059999999999997 # O15
  0.5939999999999999    0.8139999999999998    0.2579999999999999 # O16
  0.8290000000000000    0.4109999999999997    0.2490000000000001 # O17
  0.7290000000000001    0.4600000000000001    0.7569999999999997 # O18
  0.0000000000000000    0.5000000000000002    0.5000000000000000 # O19
  0.0000000000000000    0.5000000000000002    0.0000000000000000 # O20
  0.7400000000000000    0.6180000000000001    0.4690000000000001 # O21
  0.7410000000000001    0.9029999999999999    0.5609999999999997 # O22
  0.4250000000000001    0.8840000000000002    0.5580000000000004 # O23
  0.4239999999999999    0.8920000000000002    0.9610000000000000 # O24
  0.1249999999999999    0.7530000000000000    0.5059999999999997 # O25
  0.5939999999999999    0.6859999999999997    0.7579999999999998 # O26
  0.8290000000000000    0.0890000000000000    0.7490000000000002 # O27
  0.7290000000000001    0.0400000000000000    0.2570000000000003 # O28
  0.2600000000000001    0.3819999999999998    0.4690000000000001 # O29
  0.2589999999999998    0.0970000000000001    0.5609999999999997 # O30
  0.5749999999999998    0.1160000000000003    0.5580000000000004 # O31
  0.5760000000000002    0.1080000000000002    0.9610000000000000 # O32
  0.8750000000000001    0.2469999999999998    0.5059999999999997 # O33
  0.4060000000000002    0.3140000000000002    0.7579999999999998 # O34
  0.1710000000000002    0.9109999999999999    0.7490000000000002 # O35
  0.2710000000000000    0.9599999999999999    0.2570000000000003 # O36
