$cell vectors
1.0
 11.5685945564904653    0.0000000000000000    0.0000000000000000
  0.0000000000000000   16.4416922634933620    0.0000000000000000
  0.0000000000000000    0.0000000000000000    5.5359973950807557
 16 8 48
Direct
  0.3829000000000002    0.0846000000000000    0.5000000000000000 # Bi1
  0.1285999999999999    0.2500000000000000    0.4917999999999997 # Bi2
  0.3972000000000002    0.2500000000000000    0.9615999999999999 # Bi3
  0.3829000000000002    0.5845999999999999    0.0000000000000000 # Bi4
  0.1286000000000003    0.7500000000000002    0.9917999999999998 # Bi5
  0.3972000000000002    0.7500000000000002    0.4616000000000000 # Bi6
  0.6171000000000002    0.9154000000000002    0.5000000000000000 # Bi7
  0.8714000000000001    0.7500000000000002    0.4917999999999997 # Bi8
  0.6028000000000002    0.7500000000000002    0.9615999999999999 # Bi9
  0.6171000000000002    0.4153999999999999    0.0000000000000000 # Bi10
  0.8714000000000001    0.2500000000000000    0.9917999999999998 # Bi11
  0.6028000000000002    0.2500000000000000    0.4616000000000000 # Bi12
  0.6171000000000002    0.0846000000000000    0.0000000000000000 # Bi13
  0.6171000000000002    0.5845999999999999    0.5000000000000000 # Bi14
  0.3829000000000002    0.9154000000000002    0.0000000000000000 # Bi15
  0.3829000000000002    0.4153999999999999    0.5000000000000000 # Bi16
  0.1447000000000002    0.0893000000000002    0.9960000000000001 # Se1
  0.1447000000000002    0.5893000000000000    0.4960000000000001 # Se2
  0.8553000000000003    0.9107000000000001    0.9960000000000001 # Se3
  0.8553000000000003    0.4107000000000001    0.4960000000000001 # Se4
  0.8553000000000003    0.0893000000000002    0.4960000000000001 # Se5
  0.8553000000000003    0.5893000000000000    0.9960000000000001 # Se6
  0.1447000000000002    0.9107000000000001    0.4960000000000001 # Se7
  0.1447000000000002    0.4107000000000001    0.9960000000000001 # Se8
  0.2776000000000001    0.0608000000000000    0.8923999999999995 # O1
  0.5000000000000003    0.0000000000000000    0.7290000000000001 # O2
  0.0983000000000001    0.1400000000000000    0.7609999999999998 # O3
  0.3129999999999999    0.2500000000000000    0.5480000000000000 # O4
  0.4857000000000003    0.1698999999999999    0.7819999999999997 # O5
  0.1950999999999999    0.1443999999999999    0.2350000000000003 # O6
  0.0899999999999999    0.0000000000000000    0.1300000000000000 # O7
  0.2776000000000001    0.5608000000000000    0.3923999999999997 # O8
  0.5000000000000003    0.5000000000000000    0.2290000000000001 # O9
  0.0983000000000001    0.6399999999999999    0.2609999999999998 # O10
  0.3129999999999999    0.7500000000000002    0.0480000000000000 # O11
  0.4857000000000003    0.6698999999999999    0.2819999999999996 # O12
  0.1950999999999999    0.6443999999999999    0.7350000000000003 # O13
  0.0899999999999999    0.5000000000000000    0.6299999999999999 # O14
  0.7224000000000005    0.9392000000000001    0.8923999999999995 # O15
  0.9016999999999997    0.8599999999999999    0.7609999999999998 # O16
  0.6870000000000002    0.7500000000000002    0.5480000000000000 # O17
  0.5143000000000003    0.8301000000000004    0.7819999999999997 # O18
  0.8049000000000002    0.8556000000000002    0.2350000000000003 # O19
  0.9100000000000001    0.0000000000000000    0.1300000000000000 # O20
  0.7224000000000000    0.4391999999999999    0.3923999999999997 # O21
  0.9016999999999997    0.3599999999999999    0.2609999999999998 # O22
  0.6870000000000002    0.2500000000000000    0.0480000000000000 # O23
  0.5143000000000003    0.3301000000000000    0.2819999999999996 # O24
  0.8049000000000002    0.3556000000000000    0.7350000000000003 # O25
  0.9100000000000001    0.5000000000000000    0.6299999999999999 # O26
  0.7224000000000000    0.0608000000000000    0.3923999999999997 # O27
  0.5000000000000003    0.0000000000000000    0.2290000000000001 # O28
  0.9016999999999997    0.1400000000000000    0.2609999999999998 # O29
  0.5143000000000003    0.1698999999999999    0.2819999999999996 # O30
  0.8049000000000002    0.1443999999999999    0.7350000000000003 # O31
  0.9100000000000001    0.0000000000000000    0.6299999999999999 # O32
  0.7224000000000000    0.5608000000000000    0.8923999999999995 # O33
  0.5000000000000003    0.5000000000000000    0.7290000000000001 # O34
  0.9016999999999997    0.6399999999999999    0.7609999999999998 # O35
  0.5143000000000003    0.6698999999999999    0.7819999999999997 # O36
  0.8049000000000002    0.6443999999999999    0.2350000000000003 # O37
  0.9100000000000001    0.5000000000000000    0.1300000000000000 # O38
  0.2776000000000001    0.9392000000000001    0.3923999999999997 # O39
  0.0983000000000001    0.8599999999999999    0.2609999999999998 # O40
  0.4857000000000003    0.8301000000000004    0.2819999999999996 # O41
  0.1951000000000004    0.8556000000000002    0.7350000000000003 # O42
  0.0899999999999999    0.0000000000000000    0.6299999999999999 # O43
  0.2776000000000001    0.4391999999999999    0.8923999999999995 # O44
  0.0983000000000001    0.3599999999999999    0.7609999999999998 # O45
  0.4857000000000003    0.3301000000000000    0.7819999999999997 # O46
  0.1950999999999999    0.3556000000000000    0.2350000000000003 # O47
  0.0899999999999999    0.5000000000000000    0.1300000000000000 # O48
