$cell vectors
1.0
  5.2609975244797438    0.0000000000000000    0.0000000000000000
  0.0000000000000000   11.4249946240602647    0.0000000000000000
  0.0000000000000000    0.0000000000000000    5.7149973108537804
 4 4 12
Direct
  0.9304999999999995    0.3981000000000000    0.2500000000000002 # Rb1
  0.0694999999999997    0.6019000000000001    0.7499999999999998 # Rb2
  0.9304999999999995    0.1019000000000001    0.7499999999999998 # Rb3
  0.0694999999999997    0.8981000000000000    0.2500000000000002 # Rb4
  0.4659999999999998    0.1661000000000001    0.2500000000000002 # V1
  0.5340000000000005    0.8339000000000001    0.7499999999999998 # V2
  0.4659999999999998    0.3339000000000000    0.7499999999999998 # V3
  0.5339999999999994    0.6661000000000001    0.2500000000000002 # V4
  0.1567999999999999    0.1494999999999999    0.2500000000000002 # O1
  0.6022000000000000    0.0385000000000002    0.2500000000000002 # O2
  0.5681999999999995    0.2500000000000000    0.0000000000000000 # O3
  0.8432000000000005    0.8505000000000001    0.7499999999999998 # O4
  0.3978000000000003    0.9615000000000001    0.7499999999999998 # O5
  0.4317999999999997    0.7500000000000001    0.4999999999999995 # O6
  0.5681999999999995    0.2500000000000000    0.4999999999999995 # O7
  0.1567999999999999    0.3505000000000002    0.7499999999999998 # O8
  0.6022000000000000    0.4615000000000004    0.7499999999999998 # O9
  0.8432000000000005    0.6495000000000000    0.2500000000000002 # O10
  0.3978000000000003    0.5385000000000002    0.2500000000000002 # O11
  0.4317999999999997    0.7500000000000001    0.0000000000000000 # O12
