$cell vectors
1.0
  7.9549962568402135    0.0000000000000000    0.0000000000000000
  0.0000000000000000    6.2579970553495956    0.0000000000000000
  0.0000000000000000    0.0000000000000000    7.2029966106876246
 8 4 4
Direct
  0.4999999999999999    0.5000000000000000    0.7840999999999999 # Te1
  0.2499999999999996    0.5018000000000001    0.2359999999999999 # Te2
  0.4999999999999999    1.0000000000000000    0.1397999999999999 # Te3
  0.2499999999999996    0.0007000000000001    0.6840000000000002 # Te4
  0.7499999999999996    0.4981999999999999    0.2359999999999999 # Te5
  0.7499999999999996    0.9992999999999997    0.6840000000000002 # Te6
  0.0000000000000000    0.5000000000000000    0.7840999999999999 # Te7
  0.0000000000000000    0.0000000000000000    0.1397999999999999 # Te8
  0.5456999999999999    0.7572000000000001    0.4690000000000000 # Nb1
  0.4543000000000001    0.2427999999999998    0.4690000000000000 # Nb2
  0.9542999999999995    0.7572000000000001    0.4690000000000000 # Nb3
  0.0456999999999999    0.2427999999999998    0.4690000000000000 # Nb4
  0.2499999999999996    0.5950000000000003    0.5809999999999995 # Ni1
  0.2499999999999996    0.8893000000000004    0.3380000000000001 # Ni2
  0.7499999999999996    0.4050000000000004    0.5809999999999995 # Ni3
  0.7499999999999996    0.1107000000000002    0.3380000000000001 # Ni4
