$cell vectors
1.0
 13.0279938697818114    0.0000000000000000    0.0000000000000000
  0.0000000000000000   13.0369938655469326    0.0000000000000000
  0.0000000000000000    0.0000000000000000    9.1609956893668372
 4 64 16 24
Direct
  0.2536000000000001    0.2486999999999999    0.9821000000000000 # S1
  0.7463999999999998    0.7513000000000002    0.9821000000000000 # S2
  0.7463999999999998    0.2486999999999999    0.4821000000000001 # S3
  0.2536000000000001    0.7512999999999997    0.4821000000000001 # S4
  0.7289999999999999    0.3170000000000002    0.6120000000000000 # O1
  0.8379999999999995    0.1840000000000000    0.4600000000000000 # O2
  0.7700000000000001    0.3360000000000000    0.3789999999999996 # O3
  0.6509999999999996    0.2010000000000000    0.4169999999999998 # O4
  0.3999999999999997    0.2459999999999999    0.4379999999999997 # O5
  0.5669999999999997    0.4089999999999999    0.1399999999999998 # O6
  0.5549999999999999    0.1050000000000000    0.1550000000000002 # O7
  0.7549999999999997    0.5900000000000000    0.5039999999999996 # O8
  0.5959999999999996    0.4430000000000001    0.8259999999999997 # O9
  0.9069999999999998    0.4460000000000000    0.8020000000000000 # O10
  0.7570000000000000    0.9019999999999999    0.5359999999999997 # O11
  0.9009999999999999    0.0340000000000001    0.8239999999999998 # O12
  0.6079999999999999    0.0329999999999999    0.8539999999999995 # O13
  0.1030000000000000    0.2470000000000002    0.3909999999999997 # O14
  0.9529999999999998    0.1149999999999998    0.1250000000000000 # O15
  0.9479999999999993    0.3889999999999998    0.1100000000000002 # O16
  0.2710000000000002    0.6829999999999999    0.6120000000000000 # O17
  0.1620000000000001    0.8159999999999999    0.4600000000000000 # O18
  0.2300000000000000    0.6639999999999999    0.3789999999999996 # O19
  0.3489999999999999    0.7989999999999999    0.4169999999999998 # O20
  0.6000000000000000    0.7539999999999998    0.4379999999999997 # O21
  0.4329999999999999    0.5909999999999997    0.1399999999999998 # O22
  0.4449999999999997    0.8949999999999998    0.1550000000000002 # O23
  0.2449999999999999    0.4100000000000002    0.5039999999999996 # O24
  0.4040000000000003    0.5570000000000001    0.8259999999999997 # O25
  0.0930000000000001    0.5540000000000002    0.8020000000000000 # O26
  0.2429999999999995    0.0979999999999998    0.5359999999999997 # O27
  0.0989999999999998    0.9660000000000000    0.8239999999999998 # O28
  0.3920000000000000    0.9669999999999999    0.8539999999999995 # O29
  0.8970000000000000    0.7529999999999999    0.3909999999999997 # O30
  0.0469999999999999    0.8850000000000000    0.1250000000000000 # O31
  0.0520000000000003    0.6109999999999998    0.1100000000000002 # O32
  0.2710000000000002    0.3170000000000002    1.1119999999999999 # O33
  0.1620000000000001    0.1840000000000000    0.9599999999999994 # O34
  0.2300000000000000    0.3360000000000000    0.8789999999999996 # O35
  0.3489999999999999    0.2010000000000000    0.9169999999999997 # O36
  0.6000000000000000    0.2459999999999999    0.9379999999999995 # O37
  0.4329999999999999    0.4089999999999999    0.6399999999999998 # O38
  0.4449999999999997    0.1050000000000000    0.6549999999999996 # O39
  0.2449999999999999    0.5900000000000000    0.0040000000000002 # O40
  0.4039999999999999    0.4430000000000001    0.3260000000000003 # O41
  0.0930000000000001    0.4460000000000000    0.3020000000000000 # O42
  0.2429999999999999    0.9019999999999999    0.0360000000000003 # O43
  0.0989999999999998    0.0340000000000001    0.3239999999999998 # O44
  0.3919999999999996    0.0329999999999999    0.3540000000000001 # O45
  0.8970000000000000    0.2470000000000002    0.8909999999999998 # O46
  0.0469999999999999    0.1149999999999998    0.6250000000000000 # O47
  0.0519999999999999    0.3889999999999998    0.6099999999999995 # O48
  0.7289999999999999    0.6829999999999999    1.1119999999999999 # O49
  0.8380000000000000    0.8159999999999999    0.9599999999999994 # O50
  0.7700000000000001    0.6640000000000001    0.8789999999999996 # O51
  0.6509999999999996    0.7989999999999999    0.9169999999999997 # O52
  0.4000000000000000    0.7539999999999998    0.9379999999999995 # O53
  0.5670000000000002    0.5910000000000002    0.6399999999999998 # O54
  0.5549999999999999    0.8949999999999998    0.6549999999999996 # O55
  0.7549999999999997    0.4099999999999998    0.0040000000000002 # O56
  0.5959999999999996    0.5570000000000001    0.3260000000000003 # O57
  0.9069999999999998    0.5540000000000002    0.3020000000000000 # O58
  0.7570000000000000    0.0979999999999998    0.0360000000000003 # O59
  0.9009999999999999    0.9660000000000000    0.3239999999999998 # O60
  0.6079999999999999    0.9669999999999999    0.3540000000000001 # O61
  0.1030000000000000    0.7529999999999999    0.8909999999999998 # O62
  0.9529999999999998    0.8850000000000000    0.6250000000000000 # O63
  0.9479999999999993    0.6109999999999998    0.6099999999999995 # O64
  0.0580000000000000    0.2510000000000000    0.1490000000000002 # Ca1
  0.2369999999999998    0.9260000000000002    0.2859999999999996 # Ca2
  0.2570000000000001    0.5120000000000002    0.2540000000000002 # Ca3
  0.4829999999999998    0.2530000000000001    0.2280000000000002 # Ca4
  0.9419999999999996    0.7489999999999997    0.1490000000000002 # Ca5
  0.7629999999999998    0.0739999999999999    0.2859999999999996 # Ca6
  0.7429999999999999    0.4879999999999998    0.2540000000000002 # Ca7
  0.5170000000000001    0.7470000000000000    0.2280000000000002 # Ca8
  0.9419999999999996    0.2510000000000000    0.6489999999999996 # Ca9
  0.7629999999999998    0.9260000000000002    0.7859999999999996 # Ca10
  0.7429999999999999    0.5120000000000002    0.7539999999999996 # Ca11
  0.5169999999999998    0.2530000000000001    0.7279999999999995 # Ca12
  0.0580000000000000    0.7489999999999997    0.6489999999999996 # Ca13
  0.2369999999999998    0.0739999999999999    0.7859999999999996 # Ca14
  0.2570000000000001    0.4879999999999998    0.7539999999999996 # Ca15
  0.4829999999999998    0.7470000000000000    0.7279999999999995 # Ca16
  0.5000000000000000    0.4999999999999998    0.2300000000000000 # Al1
  0.5000000000000000    0.0000000000000000    0.2500000000000000 # Al2
  0.0000000000000000    0.0000000000000000    0.2049999999999999 # Al3
  0.9999999999999997    0.4999999999999998    0.1999999999999997 # Al4
  0.6270000000000000    0.1210000000000002    0.9959999999999994 # Al5
  0.1220000000000000    0.6250000000000000    0.9489999999999997 # Al6
  0.3690000000000002    0.6290000000000001    0.9800000000000000 # Al7
  0.1220000000000000    0.8759999999999999    0.9599999999999994 # Al8
  0.3730000000000000    0.8789999999999998    0.9959999999999994 # Al9
  0.8780000000000000    0.3750000000000002    0.9489999999999997 # Al10
  0.6309999999999999    0.3709999999999999    0.9800000000000000 # Al11
  0.8780000000000000    0.1240000000000002    0.9599999999999994 # Al12
  0.5000000000000000    0.4999999999999998    0.7299999999999999 # Al13
  0.5000000000000000    0.0000000000000000    0.7499999999999999 # Al14
  0.0000000000000000    0.0000000000000000    0.7050000000000000 # Al15
  0.9999999999999997    0.4999999999999998    0.6999999999999996 # Al16
  0.3729999999999995    0.1210000000000002    0.4959999999999997 # Al17
  0.8780000000000000    0.6250000000000000    0.4489999999999998 # Al18
  0.6309999999999999    0.6290000000000001    0.4800000000000000 # Al19
  0.8780000000000000    0.8759999999999999    0.4600000000000000 # Al20
  0.6270000000000000    0.8789999999999998    0.4959999999999997 # Al21
  0.1219999999999996    0.3750000000000002    0.4489999999999998 # Al22
  0.3689999999999998    0.3709999999999999    0.4800000000000000 # Al23
  0.1219999999999996    0.1239999999999998    0.4600000000000000 # Al24
