$cell vectors
1.0
  5.9199972143927173    0.0000000000000000    0.0000000000000000
  0.0000000000000000   11.4699946028858850    0.0000000000000000
  0.0000000000000000    0.0000000000000000   14.1599933371285243
 8 16 16
Direct
  0.2490000000000000    0.1249999999999999    0.2489999999999999 # Cs1
  0.7489999999999996    0.6250000000000002    0.7489999999999999 # Cs2
  0.7509999999999999    0.8749999999999999    0.2489999999999999 # Cs3
  0.2510000000000005    0.3750000000000002    0.7489999999999999 # Cs4
  0.7509999999999999    0.1249999999999999    0.7489999999999999 # Cs5
  0.2509999999999996    0.6250000000000002    0.2489999999999999 # Cs6
  0.2490000000000000    0.8750000000000006    0.7489999999999999 # Cs7
  0.7489999999999996    0.3749999999999998    0.2489999999999999 # Cs8
  0.0000000000000000    0.0000000000000000    0.0000000000000000 # Mn1
  0.0000000000000000    0.5000000000000002    0.0000000000000000 # Mn2
  0.0000000000000000    0.2499999999999999    0.0000000000000000 # Mn3
  0.4999999999999996    0.5000000000000002    0.4999999999999999 # Mn4
  0.4999999999999996    0.0000000000000000    0.4999999999999999 # Mn5
  0.4999999999999996    0.7500000000000002    0.4999999999999999 # Mn6
  0.0000000000000000    0.7500000000000002    0.0000000000000000 # Mn7
  0.4999999999999996    0.2499999999999999    0.4999999999999999 # Mn8
  0.0000000000000000    0.0000000000000000    0.4999999999999999 # Mn9
  0.0000000000000000    0.5000000000000002    0.4999999999999999 # Mn10
  0.0000000000000000    0.2499999999999999    0.4999999999999999 # Mn11
  0.4999999999999996    0.5000000000000002    0.0000000000000000 # Mn12
  0.4999999999999996    0.0000000000000000    0.0000000000000000 # Mn13
  0.4999999999999996    0.7500000000000002    0.0000000000000000 # Mn14
  0.0000000000000000    0.7500000000000002    0.4999999999999999 # Mn15
  0.4999999999999996    0.2499999999999999    0.0000000000000000 # Mn16
  0.7459999999999998    0.1259999999999999    0.0990000000000001 # S1
  0.2530000000000001    0.1239999999999999    0.9010000000000000 # S2
  0.2460000000000001    0.6260000000000001    0.5990000000000001 # S3
  0.7529999999999997    0.6240000000000002    0.4009999999999999 # S4
  0.2540000000000004    0.8740000000000000    0.0990000000000001 # S5
  0.7470000000000000    0.8760000000000002    0.9010000000000000 # S6
  0.7539999999999998    0.3740000000000003    0.5990000000000001 # S7
  0.2470000000000004    0.3760000000000003    0.4009999999999999 # S8
  0.2540000000000004    0.1259999999999999    0.5990000000000001 # S9
  0.7470000000000000    0.1239999999999999    0.4009999999999999 # S10
  0.7539999999999998    0.6260000000000001    0.0990000000000001 # S11
  0.2470000000000004    0.6240000000000002    0.9010000000000000 # S12
  0.7459999999999998    0.8740000000000000    0.5990000000000001 # S13
  0.2530000000000001    0.8760000000000002    0.4009999999999999 # S14
  0.2460000000000001    0.3739999999999999    0.0990000000000001 # S15
  0.7529999999999997    0.3760000000000003    0.9010000000000000 # S16
