$cell vectors
1.0
 11.1029947755747180    0.0000000000000000    0.0000000000000000
  0.0000000000000000   18.9239910954675281    0.0000000000000000
  0.0000000000000000    0.0000000000000000    5.5719973781412513
 16 24 52
Direct
  0.3647999999999998    0.3431999999999999    0.0019999999999997 # Sr1
  0.3804999999999997    0.1625999999999999    0.0000000000000000 # Sr2
  0.8648000000000000    0.8431999999999997    0.5019999999999997 # Sr3
  0.8804999999999998    0.6626000000000001    0.5000000000000001 # Sr4
  0.6351999999999997    0.6568000000000001    0.0019999999999997 # Sr5
  0.6194999999999998    0.8373999999999998    0.0000000000000000 # Sr6
  0.1352000000000000    0.1567999999999999    0.5019999999999997 # Sr7
  0.1195000000000000    0.3374000000000000    0.5000000000000001 # Sr8
  0.6351999999999997    0.3431999999999999    0.5019999999999997 # Sr9
  0.6194999999999998    0.1625999999999999    0.5000000000000001 # Sr10
  0.1352000000000000    0.8431999999999997    0.0019999999999997 # Sr11
  0.1195000000000000    0.6626000000000001    0.0000000000000000 # Sr12
  0.3647999999999998    0.6568000000000001    0.5019999999999997 # Sr13
  0.3805000000000002    0.8373999999999998    0.5000000000000001 # Sr14
  0.8648000000000000    0.1567999999999999    0.0019999999999997 # Sr15
  0.8804999999999998    0.3374000000000000    0.0000000000000000 # Sr16
  0.1247000000000002    0.0401000000000000    0.0430000000000004 # Fe1
  0.1140999999999999    0.4562999999999999    0.0799999999999999 # Fe2
  0.1200000000000003    0.2442000000000001    0.9959999999999996 # Fe3
  0.6246999999999999    0.5400999999999999    0.5430000000000004 # Fe4
  0.6141000000000001    0.9562999999999997    0.5800000000000000 # Fe5
  0.6199999999999999    0.7441999999999998    0.4959999999999997 # Fe6
  0.8752999999999999    0.9598999999999998    0.0429999999999995 # Fe7
  0.8858999999999997    0.5436999999999999    0.0799999999999999 # Fe8
  0.8799999999999998    0.7557999999999998    0.9959999999999996 # Fe9
  0.3753000000000000    0.4598999999999999    0.5430000000000004 # Fe10
  0.3858999999999998    0.0436999999999999    0.5800000000000000 # Fe11
  0.3800000000000000    0.2558000000000000    0.4959999999999997 # Fe12
  0.8752999999999999    0.0401000000000000    0.5430000000000004 # Fe13
  0.8858999999999997    0.4562999999999999    0.5800000000000000 # Fe14
  0.8799999999999998    0.2442000000000001    0.4959999999999997 # Fe15
  0.3753000000000000    0.5400999999999999    0.0430000000000004 # Fe16
  0.3858999999999998    0.9562999999999997    0.0799999999999999 # Fe17
  0.3800000000000000    0.7441999999999998    0.9959999999999996 # Fe18
  0.1247000000000002    0.9598999999999998    0.5430000000000004 # Fe19
  0.1140999999999999    0.5436999999999999    0.5800000000000000 # Fe20
  0.1200000000000003    0.7557999999999998    0.4959999999999997 # Fe21
  0.6246999999999999    0.4598999999999999    0.0430000000000004 # Fe22
  0.6141000000000001    0.0436999999999999    0.0799999999999999 # Fe23
  0.6199999999999999    0.2558000000000000    0.9959999999999996 # Fe24
  0.1409999999999999    0.1350000000000000    0.9700000000000003 # O1
  0.1260000000000002    0.3650000000000001    0.9800000000000005 # O2
  0.9919999999999998    0.2420000000000000    0.2399999999999997 # O3
  0.2510000000000000    0.2500000000000001    0.2600000000000002 # O4
  0.2110000000000001    0.0389999999999999    0.3800000000000001 # O5
  0.4109999999999997    0.0390000000000002    0.9300000000000002 # O6
  0.4999999999999997    0.4999999999999998    0.8100000000000005 # O7
  0.6410000000000001    0.6349999999999999    0.4700000000000002 # O8
  0.6259999999999999    0.8650000000000000    0.4799999999999994 # O9
  0.4919999999999999    0.7420000000000000    0.7399999999999997 # O10
  0.7509999999999998    0.7499999999999999    0.7600000000000001 # O11
  0.7109999999999999    0.5389999999999999    0.8800000000000000 # O12
  0.9110000000000000    0.5389999999999999    0.4300000000000003 # O13
  0.0000000000000000    0.0000000000000000    0.3100000000000004 # O14
  0.8590000000000000    0.8650000000000000    0.9700000000000003 # O15
  0.8739999999999998    0.6349999999999999    0.9800000000000005 # O16
  0.0080000000000003    0.7579999999999999    0.2399999999999997 # O17
  0.7489999999999999    0.7499999999999999    0.2600000000000002 # O18
  0.7889999999999998    0.9609999999999999    0.3800000000000001 # O19
  0.5889999999999997    0.9609999999999999    0.9300000000000002 # O20
  0.3589999999999999    0.3649999999999998    0.4700000000000002 # O21
  0.3740000000000000    0.1350000000000000    0.4800000000000004 # O22
  0.5080000000000000    0.2580000000000001    0.7399999999999997 # O23
  0.2490000000000002    0.2500000000000001    0.7600000000000001 # O24
  0.2890000000000001    0.4610000000000000    0.8800000000000000 # O25
  0.0890000000000000    0.4610000000000000    0.4300000000000003 # O26
  0.8589999999999997    0.1350000000000000    0.4700000000000002 # O27
  0.8739999999999998    0.3649999999999998    0.4800000000000004 # O28
  0.0080000000000003    0.2420000000000000    0.7399999999999997 # O29
  0.7489999999999999    0.2500000000000001    0.7600000000000001 # O30
  0.7889999999999998    0.0389999999999999    0.8800000000000000 # O31
  0.5889999999999997    0.0389999999999999    0.4300000000000003 # O32
  0.4999999999999997    0.4999999999999998    0.3100000000000004 # O33
  0.3589999999999999    0.6349999999999999    0.9700000000000003 # O34
  0.3740000000000000    0.8650000000000000    0.9800000000000005 # O35
  0.5080000000000000    0.7420000000000000    0.2399999999999997 # O36
  0.2490000000000002    0.7499999999999999    0.2600000000000002 # O37
  0.2890000000000001    0.5389999999999999    0.3800000000000001 # O38
  0.0890000000000000    0.5389999999999999    0.9300000000000002 # O39
  0.0000000000000000    0.0000000000000000    0.8100000000000005 # O40
  0.1409999999999999    0.8650000000000000    0.4700000000000002 # O41
  0.1260000000000002    0.6349999999999999    0.4800000000000004 # O42
  0.9919999999999998    0.7579999999999999    0.7399999999999997 # O43
  0.2510000000000000    0.7499999999999999    0.7600000000000001 # O44
  0.2110000000000001    0.9609999999999999    0.8800000000000000 # O45
  0.4109999999999997    0.9609999999999999    0.4300000000000003 # O46
  0.6409999999999997    0.3650000000000001    0.9700000000000003 # O47
  0.6259999999999999    0.1350000000000000    0.9800000000000005 # O48
  0.4919999999999999    0.2580000000000001    0.2399999999999997 # O49
  0.7509999999999998    0.2500000000000001    0.2600000000000002 # O50
  0.7109999999999999    0.4610000000000000    0.3800000000000001 # O51
  0.9110000000000000    0.4610000000000000    0.9300000000000002 # O52
