$cell vectors
1.0
  5.7429972976786114    0.0000000000000000    0.0000000000000000
  0.0000000000000000    4.9149976872871965    0.0000000000000000
  0.0000000000000000    0.0000000000000000    9.3609955952584816
 6 4 16
Direct
  0.2393000000000003    0.8341999999999993    0.0000000000000000 # Mn1
  0.4999999999999999    0.3341999999999999    0.9990000000000003 # Mn2
  0.2606999999999996    0.1657999999999994    0.5000000000000000 # Mn3
  1.0000000000000000    0.6657999999999999    0.4989999999999998 # Mn4
  0.7606999999999996    0.8341999999999993    0.0000000000000000 # Mn5
  0.7392999999999993    0.1658000000000005    0.5000000000000000 # Mn6
  0.0000000000000000    0.3247000000000001    0.2199000000000001 # Co1
  0.4999999999999999    0.6728000000000002    0.3176000000000002 # Co2
  0.4999999999999999    0.6752999999999997    0.7199000000000000 # Co3
  0.0000000000000000    0.3271999999999997    0.8176000000000001 # Co4
  0.7389999999999995    0.1510000000000003    0.1029999999999999 # O1
  0.7729999999999998    0.4750000000000000    0.3780000000000000 # O2
  0.0000000000000000    0.6919999999999995    0.1010000000000001 # O3
  0.4999999999999999    0.6679999999999994    0.1019999999999997 # O4
  0.0000000000000000    0.9819999999999997    0.3980000000000002 # O5
  0.4999999999999999    0.0330000000000002    0.3930000000000000 # O6
  0.7610000000000003    0.8489999999999996    0.6029999999999998 # O7
  0.7270000000000001    0.5249999999999999    0.8780000000000000 # O8
  0.4999999999999999    0.3080000000000004    0.6010000000000001 # O9
  0.0000000000000000    0.3320000000000004    0.6020000000000002 # O10
  0.4999999999999999    0.0180000000000003    0.8980000000000001 # O11
  0.0000000000000000    0.9669999999999997    0.8930000000000000 # O12
  0.2610000000000003    0.1510000000000003    0.1029999999999999 # O13
  0.2270000000000001    0.4750000000000000    0.3780000000000000 # O14
  0.2389999999999996    0.8489999999999996    0.6029999999999998 # O15
  0.2729999999999999    0.5249999999999999    0.8780000000000000 # O16
