$cell vectors
1.0
  6.3859969951202533    0.0000000000000000    0.0000000000000000
  0.0000000000000000   10.4299950922493281    0.0000000000000000
  0.0000000000000000    0.0000000000000000    3.7999982119412707
 6 16
Direct
  0.0000000000000000    0.0000000000000000    0.0000000000000000 # W1
  0.0000000000000000    0.3240000000000002    0.0000000000000000 # W2
  0.4999999999999996    0.5000000000000002    0.0000000000000000 # W3
  0.4999999999999996    0.8240000000000000    0.0000000000000000 # W4
  0.0000000000000000    0.6759999999999998    0.0000000000000000 # W5
  0.4999999999999996    0.1760000000000001    0.0000000000000000 # W6
  0.0000000000000000    0.5000000000000002    0.0000000000000000 # O1
  0.0000000000000000    0.0000000000000000    0.4999999999999992 # O2
  0.0000000000000000    0.3020000000000001    0.4999999999999992 # O3
  0.1570000000000003    0.1519999999999999    0.1500000000000005 # O4
  0.4999999999999996    0.0000000000000000    0.0000000000000000 # O5
  0.4999999999999996    0.5000000000000002    0.4999999999999992 # O6
  0.4999999999999996    0.8019999999999998    0.4999999999999992 # O7
  0.6569999999999999    0.6520000000000001    0.1500000000000005 # O8
  0.0000000000000000    0.6979999999999998    0.4999999999999992 # O9
  0.8429999999999997    0.8480000000000001    0.1500000000000005 # O10
  0.4999999999999996    0.1980000000000001    0.4999999999999992 # O11
  0.3430000000000001    0.3479999999999999    0.1500000000000005 # O12
  0.1570000000000003    0.8480000000000001    0.8499999999999994 # O13
  0.6569999999999999    0.3479999999999999    0.8499999999999994 # O14
  0.8429999999999997    0.1519999999999999    0.8499999999999994 # O15
  0.3430000000000001    0.6520000000000001    0.8499999999999994 # O16
