$cell vectors
1.0
 14.3579932439612499    0.0000000000000000    0.0000000000000000
  0.0000000000000000   16.8249920831346991    0.0000000000000000
  0.0000000000000000    0.0000000000000000    5.3209974962472355
 18 24 54
Direct
  0.0000000000000000    0.0000000000000000    0.0000000000000000 # Ca1
  0.0000000000000000    0.4017000000000001    0.9097999999999998 # Ca2
  0.1292999999999999    0.2096000000000002    0.9961999999999998 # Ca3
  0.2398999999999999    0.0000000000000000    0.9490999999999999 # Ca4
  0.5000000000000000    0.5000000000000000    0.0000000000000000 # Ca5
  0.5000000000000000    0.9016999999999999    0.9097999999999998 # Ca6
  0.6293000000000001    0.7096000000000002    0.9961999999999998 # Ca7
  0.7399000000000000    0.5000000000000000    0.9490999999999999 # Ca8
  0.0000000000000000    0.5982999999999999    0.9097999999999998 # Ca9
  0.8707000000000001    0.7904000000000001    0.9961999999999998 # Ca10
  0.7601000000000002    0.0000000000000000    0.9490999999999999 # Ca11
  0.5000000000000000    0.0983000000000000    0.9097999999999998 # Ca12
  0.3707000000000001    0.2904000000000001    0.9961999999999998 # Ca13
  0.2601000000000001    0.5000000000000000    0.9490999999999999 # Ca14
  0.8707000000000001    0.2096000000000002    0.9961999999999998 # Ca15
  0.3707000000000001    0.7096000000000002    0.9961999999999998 # Ca16
  0.1292999999999999    0.7904000000000001    0.9961999999999998 # Ca17
  0.6293000000000001    0.2904000000000001    0.9961999999999998 # Ca18
  0.1088000000000000    0.0938999999999999    0.4872999999999997 # Ga1
  0.2005000000000002    0.3346000000000000    0.4365999999999999 # Ga2
  0.3877999999999998    0.0000000000000000    0.3898000000000000 # Ga3
  0.0000000000000000    0.2623000000000000    0.4705000000000004 # Ga4
  0.6088000000000000    0.5938999999999999    0.4872999999999997 # Ga5
  0.7005000000000000    0.8346000000000002    0.4365999999999999 # Ga6
  0.8878000000000003    0.5000000000000000    0.3898000000000000 # Ga7
  0.5000000000000000    0.7623000000000000    0.4705000000000004 # Ga8
  0.8912000000000004    0.9061000000000000    0.4872999999999997 # Ga9
  0.7995000000000002    0.6654000000000001    0.4365999999999999 # Ga10
  0.6122000000000003    0.0000000000000000    0.3898000000000000 # Ga11
  0.0000000000000000    0.7376999999999999    0.4705000000000004 # Ga12
  0.3912000000000000    0.4061000000000000    0.4872999999999997 # Ga13
  0.2995000000000002    0.1654000000000000    0.4365999999999999 # Ga14
  0.1122000000000002    0.5000000000000000    0.3898000000000000 # Ga15
  0.5000000000000000    0.2377000000000001    0.4705000000000004 # Ga16
  0.8912000000000001    0.0938999999999999    0.4872999999999997 # Ga17
  0.7995000000000002    0.3346000000000000    0.4365999999999999 # Ga18
  0.3912000000000000    0.5938999999999999    0.4872999999999997 # Ga19
  0.2995000000000002    0.8346000000000002    0.4365999999999999 # Ga20
  0.1088000000000000    0.9061000000000000    0.4872999999999997 # Ga21
  0.2005000000000002    0.6654000000000001    0.4365999999999999 # Ga22
  0.6088000000000000    0.4061000000000000    0.4872999999999997 # Ga23
  0.7005000000000000    0.1654000000000000    0.4365999999999999 # Ga24
  0.3910000000000001    0.0000000000000000    0.7279999999999999 # O1
  0.1039999999999999    0.0000000000000000    0.6540000000000005 # O2
  0.1020000000000000    0.3040000000000002    0.6359999999999997 # O3
  0.0000000000000000    0.1540000000000001    0.5979999999999996 # O4
  0.2940000000000002    0.3610000000000000    0.6569999999999999 # O5
  0.0000000000000000    0.5000000000000000    0.2260000000000000 # O6
  0.1150000000000000    0.0889999999999999    0.1500000000000003 # O7
  0.0000000000000000    0.2719999999999999    0.1329999999999996 # O8
  0.1690000000000002    0.4150000000000001    0.2270000000000002 # O9
  0.2500000000000002    0.2500000000000002    0.2429999999999997 # O10
  0.8910000000000000    0.5000000000000000    0.7279999999999999 # O11
  0.6040000000000001    0.5000000000000000    0.6540000000000005 # O12
  0.6020000000000002    0.8040000000000000    0.6359999999999997 # O13
  0.5000000000000000    0.6540000000000001    0.5979999999999996 # O14
  0.7940000000000003    0.8610000000000001    0.6569999999999999 # O15
  0.5000000000000000    0.0000000000000000    0.2260000000000000 # O16
  0.6149999999999999    0.5890000000000001    0.1500000000000003 # O17
  0.5000000000000000    0.7719999999999998    0.1329999999999996 # O18
  0.6690000000000002    0.9150000000000000    0.2270000000000002 # O19
  0.7500000000000002    0.7500000000000001    0.2429999999999997 # O20
  0.6089999999999999    0.0000000000000000    0.7279999999999999 # O21
  0.8960000000000001    0.0000000000000000    0.6540000000000005 # O22
  0.8980000000000000    0.6960000000000002    0.6359999999999997 # O23
  0.0000000000000000    0.8460000000000000    0.5979999999999996 # O24
  0.7060000000000000    0.6390000000000002    0.6569999999999999 # O25
  0.8849999999999999    0.9110000000000000    0.1500000000000003 # O26
  0.0000000000000000    0.7280000000000001    0.1329999999999996 # O27
  0.8310000000000000    0.5850000000000000    0.2270000000000002 # O28
  0.1089999999999999    0.5000000000000000    0.7279999999999999 # O29
  0.3960000000000002    0.5000000000000000    0.6540000000000005 # O30
  0.3980000000000000    0.1960000000000002    0.6359999999999997 # O31
  0.5000000000000000    0.3459999999999999    0.5979999999999996 # O32
  0.2059999999999999    0.1389999999999999    0.6569999999999999 # O33
  0.3850000000000001    0.4110000000000001    0.1500000000000003 # O34
  0.5000000000000000    0.2280000000000001    0.1329999999999996 # O35
  0.3309999999999998    0.0849999999999999    0.2270000000000002 # O36
  0.8980000000000000    0.3040000000000002    0.6359999999999997 # O37
  0.7060000000000000    0.3610000000000000    0.6569999999999999 # O38
  0.8849999999999999    0.0889999999999999    0.1500000000000003 # O39
  0.8310000000000000    0.4150000000000001    0.2270000000000002 # O40
  0.7500000000000002    0.2500000000000002    0.2429999999999997 # O41
  0.3980000000000000    0.8040000000000000    0.6359999999999997 # O42
  0.2060000000000003    0.8610000000000001    0.6569999999999999 # O43
  0.3850000000000001    0.5890000000000001    0.1500000000000003 # O44
  0.3310000000000001    0.9150000000000000    0.2270000000000002 # O45
  0.2500000000000002    0.7500000000000001    0.2429999999999997 # O46
  0.1020000000000000    0.6960000000000002    0.6359999999999997 # O47
  0.2940000000000002    0.6390000000000002    0.6569999999999999 # O48
  0.1150000000000000    0.9110000000000000    0.1500000000000003 # O49
  0.1690000000000002    0.5850000000000000    0.2270000000000002 # O50
  0.6020000000000002    0.1960000000000002    0.6359999999999997 # O51
  0.7940000000000003    0.1389999999999999    0.6569999999999999 # O52
  0.6149999999999999    0.4110000000000001    0.1500000000000003 # O53
  0.6690000000000002    0.0849999999999999    0.2270000000000002 # O54
