$cell vectors
1.0
  9.5399955110315044    0.0000000000000000    0.0000000000000000
  0.0000000000000000    9.8499953651635526    0.0000000000000000
  0.0000000000000000    0.0000000000000000    3.5799983154604620
 4 4 20
Direct
  0.2499999999999999    0.2040000000000001    0.0220000000000006 # Al1
  0.2499999999999999    0.7040000000000004    0.5219999999999998 # Al2
  0.7500000000000001    0.7960000000000005    0.0220000000000006 # Al3
  0.7500000000000001    0.2960000000000002    0.5219999999999998 # Al4
  0.0000000000000000    0.0000000000000000    0.4989999999999997 # Mn1
  0.0000000000000000    0.5000000000000002    0.9989999999999988 # Mn2
  0.4999999999999997    0.0000000000000000    0.4989999999999997 # Mn3
  0.4999999999999997    0.5000000000000002    0.9989999999999988 # Mn4
  0.2499999999999999    0.1960000000000001    0.4820000000000001 # F1
  0.1150000000000002    0.3290000000000002    0.0500000000000004 # F2
  0.1120000000000001    0.0620000000000001    0.0000000000000000 # F3
  0.2499999999999999    0.6960000000000004    0.9819999999999993 # F4
  0.1150000000000002    0.8289999999999998    0.5499999999999996 # F5
  0.1120000000000001    0.5620000000000004    0.4999999999999992 # F6
  0.7500000000000001    0.8040000000000005    0.4820000000000001 # F7
  0.8849999999999998    0.6710000000000004    0.0500000000000004 # F8
  0.8880000000000000    0.9379999999999999    0.0000000000000000 # F9
  0.7500000000000001    0.3040000000000002    0.9819999999999993 # F10
  0.8849999999999998    0.1710000000000000    0.5499999999999996 # F11
  0.8880000000000000    0.4380000000000002    0.4999999999999992 # F12
  0.3850000000000001    0.3290000000000002    0.0500000000000004 # F13
  0.3880000000000002    0.0620000000000001    0.0000000000000000 # F14
  0.3850000000000001    0.8289999999999998    0.5499999999999996 # F15
  0.3880000000000002    0.5620000000000004    0.4999999999999992 # F16
  0.6150000000000000    0.6710000000000004    0.0500000000000004 # F17
  0.6119999999999999    0.9379999999999999    0.0000000000000000 # F18
  0.6150000000000000    0.1710000000000000    0.5499999999999996 # F19
  0.6119999999999999    0.4380000000000002    0.4999999999999992 # F20
