Mo_Grain
1.0000
2.7350035 0.000000 0.000000
0.0000000 7.7356000 0.000000
0.0000000 0.0000000 36.0536112
Mo
48
Cartesian
2.7391207 0.0117240 0.9902005
1.8321834 1.2950526 3.3114532
2.7391207 0.0117240 5.5502287
1.8275921 1.3009132 7.7871710
2.7391207 0.0117240 10.0224996
1.8240001 1.3017814 12.2575218
2.7391207 0.0117240 14.4795207
1.7549698 1.3073907 16.7265974
2.7391207 0.0117240 19.0170061
0.9110546 1.2950526 21.3382588
2.7391207 0.0117240 23.5770343
0.9156459 1.3009132 25.8139766
2.7391207 0.0117240 28.0493052
0.9192379 1.3017814 30.2843274
2.7391207 0.0117240 32.5063263
0.9882682 1.3073907 34.7534030
0.9882682 2.5838573 1.0841050
0.9192379 2.5894666 5.5531806
0.9156459 2.5903348 10.0235314
0.9110546 2.5961954 14.4992492
1.7549698 2.5838573 19.1109106
1.8240001 2.5894666 23.5799862
1.8275921 2.5903348 28.0503370
1.8321834 2.5961954 32.5260548
1.7549698 5.1751907 1.0841050
2.7391207 3.8795240 3.3311817
1.8240001 5.1695814 5.5531806
2.7391207 3.8795240 7.7882028
1.8275921 5.1687132 10.0235314
2.7391207 3.8795240 12.2604737
1.8321834 5.1628526 14.4992492
2.7391207 3.8795240 16.8205019
0.9882682 5.1751907 19.1109106
2.7391207 3.8795240 21.3579873
0.9192379 5.1695814 23.5799862
2.7391207 3.8795240 25.8150084
0.9156459 5.1687132 28.0503370
2.7391207 3.8795240 30.2872793
0.9110546 5.1628526 32.5260548
2.7391207 3.8795240 34.8473075
0.9110546 6.4639954 3.3114532
0.9156459 6.4581348 7.7871710
0.9192379 6.4572666 12.2575218
0.9882682 6.4516573 16.7265974
1.8321834 6.4639954 21.3382588
1.8275921 6.4581348 25.8139766
1.8240001 6.4572666 30.2843274
1.7549698 6.4516573 34.7534030
