ALGO=Fast
LDAUPRINT=1
LORBIT=11
ISIF=3
SYSTEM=id=[91090] dblock_code=[20070929235612LiNiO-59.53134651-VASP] formula=[Li3 Ni3 O6] sg_name=[R-3m]
NELM=100
LREAL=Auto
IBRION=2
EDIFF=1.0e-4
NSW=51
PREC=Accurate
NELMIN=3
ISMEAR=-5
ICHARG=1
ISPIN=2
SIGMA=0.05
LMAXMIX=4
NPAR=1
LWAVE=.FALSE.