#Generated by VASPTemplateInput
# Here are the tags
LREAL=Auto
ENCUT=500
LCHARG=.TRUE.
IBRION=2
EDIFF=1E-4
PREC=Accurate
NSW=99
ISMEAR=0
ISPIN=2
ISPIND=2
NPAR=8
TIME=0.4
LSCALU=.FALSE.
ALGO=Damped
LORBIT=11
ISIF=3
SYSTEM=id=[0] dblock_code=[97763-ICSD] formula=[Li Mn (P O4)] sg_name=[P n m a]
HFSCREEN=0.207
NSIM=1
SIGMA=0.05
LHFCALC=.TRUE.
ENCUTFOCK=0  # omit flag for high quality calculations
NKRED=2
LMAXMIX=4
LWAVE=.TRUE.
LPLANE=.TRUE.

MAGMOM=6 -6 -6 6 4*0.6 16*0.6
NUPDOWN=0
