Automatically generated mesh
      49
Reciprocal lattice
    0.00000000000000    0.00000000000000    0.00000000000000             1
    0.25000000000000    0.00000000000000    0.00000000000000             1
    0.50000000000000    0.00000000000000    0.00000000000000             1
   -0.25000000000000   -0.00000000000000    0.00000000000000             1
    0.00000000000000    0.25000000000000    0.00000000000000             1
    0.25000000000000    0.25000000000000    0.00000000000000             1
    0.50000000000000    0.25000000000000    0.00000000000000             1
   -0.25000000000000    0.25000000000000    0.00000000000000             1
    0.00000000000000    0.50000000000000    0.00000000000000             1
    0.25000000000000    0.50000000000000    0.00000000000000             1
    0.50000000000000    0.50000000000000    0.00000000000000             1
   -0.25000000000000    0.50000000000000    0.00000000000000             1
   -0.00000000000000   -0.25000000000000    0.00000000000000             1
    0.25000000000000   -0.25000000000000    0.00000000000000             1
    0.50000000000000   -0.25000000000000    0.00000000000000             1
   -0.25000000000000   -0.25000000000000    0.00000000000000             1
    0.00000000000000    0.00000000000000    0.33333333333333             1
    0.25000000000000    0.00000000000000    0.33333333333333             1
    0.50000000000000    0.00000000000000    0.33333333333333             1
   -0.25000000000000   -0.00000000000000    0.33333333333333             1
    0.00000000000000    0.25000000000000    0.33333333333333             1
    0.25000000000000    0.25000000000000    0.33333333333333             1
    0.50000000000000    0.25000000000000    0.33333333333333             1
   -0.25000000000000    0.25000000000000    0.33333333333333             1
    0.00000000000000    0.50000000000000    0.33333333333333             1
    0.25000000000000    0.50000000000000    0.33333333333333             1
    0.50000000000000    0.50000000000000    0.33333333333333             1
   -0.25000000000000    0.50000000000000    0.33333333333333             1
   -0.00000000000000   -0.25000000000000    0.33333333333333             1
    0.25000000000000   -0.25000000000000    0.33333333333333             1
    0.50000000000000   -0.25000000000000    0.33333333333333             1
   -0.25000000000000   -0.25000000000000    0.33333333333333             1
    0.00000000000000    0.00000000000000   -0.33333333333333             1
    0.25000000000000    0.00000000000000   -0.33333333333333             1
    0.50000000000000    0.00000000000000   -0.33333333333333             1
   -0.25000000000000   -0.00000000000000   -0.33333333333333             1
    0.00000000000000    0.25000000000000   -0.33333333333333             1
    0.25000000000000    0.25000000000000   -0.33333333333333             1
    0.50000000000000    0.25000000000000   -0.33333333333333             1
   -0.25000000000000    0.25000000000000   -0.33333333333333             1
    0.00000000000000    0.50000000000000   -0.33333333333333             1
    0.25000000000000    0.50000000000000   -0.33333333333333             1
    0.50000000000000    0.50000000000000   -0.33333333333333             1
   -0.25000000000000    0.50000000000000   -0.33333333333333             1
   -0.00000000000000   -0.25000000000000   -0.33333333333333             1
    0.25000000000000   -0.25000000000000   -0.33333333333333             1
    0.50000000000000   -0.25000000000000   -0.33333333333333             1
   -0.25000000000000   -0.25000000000000   -0.33333333333333             1
    0.0 0.0 0.0 0 Gamma
