K-points for bandstructure G-X-P-N-G-M
50
line
reciprocal
  0.00000  0.00000  0.00000   !\Gamma
  0.00000  0.00000  0.50000   !X

  0.00000  0.00000  0.50000   !X
  0.25000  0.25000  0.25000   !P

  0.25000  0.25000  0.25000   !P
  0.00000  0.50000  0.00000   !N
  
  0.00000  0.50000  0.00000   !N
  0.00000  0.00000  0.00000   !\Gamma

