ORC (orthorombic) G-X-S-Y-G-Z-U-R-T-Z Y-T U-X S-R
16   ! 16 grids 
Line-mode
reciprocal
   0.000   0.000   0.000   ! \Gamma
   0.500   0.000   0.000   ! X

   0.500   0.000   0.000   ! X
   0.500   0.500   0.000   ! S

   0.500   0.500   0.000   ! S
   0.000   0.500   0.000   ! Y

   0.000   0.500   0.000   ! Y
   0.000   0.000   0.000   ! \Gamma

   0.000   0.000   0.000   ! \Gamma
   0.000   0.000   0.500   ! Z

   0.000   0.000   0.500   ! Z
   0.500   0.000   0.500   ! U

   0.500   0.000   0.500   ! U
   0.500   0.500   0.500   ! R

   0.500   0.500   0.500   ! R
   0.000   0.500   0.500   ! T

   0.000   0.500   0.500   ! T
   0.000   0.000   0.500   ! Z

   0.000   0.500   0.000   ! Y
   0.000   0.500   0.500   ! T

   0.500   0.000   0.500   ! U
   0.500   0.000   0.000   ! X

   0.500   0.500   0.000   ! S
   0.500   0.500   0.500   ! R

