form=[Li2 O1] sg=[F m -3 m] num=[225]
1.0000000000
9.2460000000 0.0000000000 0.0000000000
0.0000000000 9.2460000000 0.0000000000
0.0000000000 0.0000000000 9.2460000000
Li O
64 32 
D
0.1250000000 0.1250000000 0.3750000000 Li1+
0.1250000000 0.1250000000 0.8750000000 Li1+
0.1250000000 0.6250000000 0.3750000000 Li1+
0.1250000000 0.6250000000 0.8750000000 Li1+
0.6250000000 0.1250000000 0.3750000000 Li1+
0.6250000000 0.1250000000 0.8750000000 Li1+
0.6250000000 0.6250000000 0.3750000000 Li1+
0.6250000000 0.6250000000 0.8750000000 Li1+
0.1250000000 0.3750000000 0.1250000000 Li1+
0.1250000000 0.3750000000 0.6250000000 Li1+
0.1250000000 0.8750000000 0.1250000000 Li1+
0.1250000000 0.8750000000 0.6250000000 Li1+
0.6250000000 0.3750000000 0.1250000000 Li1+
0.6250000000 0.3750000000 0.6250000000 Li1+
0.6250000000 0.8750000000 0.1250000000 Li1+
0.6250000000 0.8750000000 0.6250000000 Li1+
0.3750000000 0.1250000000 0.1250000000 Li1+
0.3750000000 0.1250000000 0.6250000000 Li1+
0.3750000000 0.6250000000 0.1250000000 Li1+
0.3750000000 0.6250000000 0.6250000000 Li1+
0.8750000000 0.1250000000 0.1250000000 Li1+
0.8750000000 0.1250000000 0.6250000000 Li1+
0.8750000000 0.6250000000 0.1250000000 Li1+
0.8750000000 0.6250000000 0.6250000000 Li1+
0.3750000000 0.3750000000 0.3750000000 Li1+
0.3750000000 0.3750000000 0.8750000000 Li1+
0.3750000000 0.8750000000 0.3750000000 Li1+
0.3750000000 0.8750000000 0.8750000000 Li1+
0.8750000000 0.3750000000 0.3750000000 Li1+
0.8750000000 0.3750000000 0.8750000000 Li1+
0.8750000000 0.8750000000 0.3750000000 Li1+
0.8750000000 0.8750000000 0.8750000000 Li1+
0.3750000000 0.3750000000 0.1250000000 Li1+
0.3750000000 0.3750000000 0.6250000000 Li1+
0.3750000000 0.8750000000 0.1250000000 Li1+
0.3750000000 0.8750000000 0.6250000000 Li1+
0.8750000000 0.3750000000 0.1250000000 Li1+
0.8750000000 0.3750000000 0.6250000000 Li1+
0.8750000000 0.8750000000 0.1250000000 Li1+
0.8750000000 0.8750000000 0.6250000000 Li1+
0.3750000000 0.1250000000 0.3750000000 Li1+
0.3750000000 0.1250000000 0.8750000000 Li1+
0.3750000000 0.6250000000 0.3750000000 Li1+
0.3750000000 0.6250000000 0.8750000000 Li1+
0.8750000000 0.1250000000 0.3750000000 Li1+
0.8750000000 0.1250000000 0.8750000000 Li1+
0.8750000000 0.6250000000 0.3750000000 Li1+
0.8750000000 0.6250000000 0.8750000000 Li1+
0.1250000000 0.3750000000 0.3750000000 Li1+
0.1250000000 0.3750000000 0.8750000000 Li1+
0.1250000000 0.8750000000 0.3750000000 Li1+
0.1250000000 0.8750000000 0.8750000000 Li1+
0.6250000000 0.3750000000 0.3750000000 Li1+
0.6250000000 0.3750000000 0.8750000000 Li1+
0.6250000000 0.8750000000 0.3750000000 Li1+
0.6250000000 0.8750000000 0.8750000000 Li1+
0.1250000000 0.1250000000 0.1250000000 Li1+
0.1250000000 0.1250000000 0.6250000000 Li1+
0.1250000000 0.6250000000 0.1250000000 Li1+
0.1250000000 0.6250000000 0.6250000000 Li1+
0.6250000000 0.1250000000 0.1250000000 Li1+
0.6250000000 0.1250000000 0.6250000000 Li1+
0.6250000000 0.6250000000 0.1250000000 Li1+
0.6250000000 0.6250000000 0.6250000000 Li1+
0.0000000000 0.0000000000 0.0000000000 O2-
0.0000000000 0.0000000000 0.5000000000 O2-
0.0000000000 0.5000000000 0.0000000000 O2-
0.0000000000 0.5000000000 0.5000000000 O2-
0.5000000000 0.0000000000 0.0000000000 O2-
0.5000000000 0.0000000000 0.5000000000 O2-
0.5000000000 0.5000000000 0.0000000000 O2-
0.5000000000 0.5000000000 0.5000000000 O2-
0.0000000000 0.2500000000 0.2500000000 O2-
0.0000000000 0.2500000000 0.7500000000 O2-
0.0000000000 0.7500000000 0.2500000000 O2-
0.0000000000 0.7500000000 0.7500000000 O2-
0.5000000000 0.2500000000 0.2500000000 O2-
0.5000000000 0.2500000000 0.7500000000 O2-
0.5000000000 0.7500000000 0.2500000000 O2-
0.5000000000 0.7500000000 0.7500000000 O2-
0.2500000000 0.0000000000 0.2500000000 O2-
0.2500000000 0.0000000000 0.7500000000 O2-
0.2500000000 0.5000000000 0.2500000000 O2-
0.2500000000 0.5000000000 0.7500000000 O2-
0.7500000000 0.0000000000 0.2500000000 O2-
0.7500000000 0.0000000000 0.7500000000 O2-
0.7500000000 0.5000000000 0.2500000000 O2-
0.7500000000 0.5000000000 0.7500000000 O2-
0.2500000000 0.2500000000 0.0000000000 O2-
0.2500000000 0.2500000000 0.5000000000 O2-
0.2500000000 0.7500000000 0.0000000000 O2-
0.2500000000 0.7500000000 0.5000000000 O2-
0.7500000000 0.2500000000 0.0000000000 O2-
0.7500000000 0.2500000000 0.5000000000 O2-
0.7500000000 0.7500000000 0.0000000000 O2-
0.7500000000 0.7500000000 0.5000000000 O2-
