Al12 O18
1.0
2.397450 -4.152505 0.000000
2.397450 4.152505 0.000000
0.000000 0.000000 13.099500
Al O
12 18
direct
0.000000 0.000000 0.852740 Al0+
0.666667 0.333333 0.186073 Al0+
0.333333 0.666667 0.519407 Al0+
0.000000 0.000000 0.352740 Al0+
0.666667 0.333333 0.686073 Al0+
0.333333 0.666667 0.019407 Al0+
0.000000 0.000000 0.147260 Al0+
0.666667 0.333333 0.480593 Al0+
0.333333 0.666667 0.813927 Al0+
0.000000 0.000000 0.647260 Al0+
0.666667 0.333333 0.980593 Al0+
0.333333 0.666667 0.313927 Al0+
0.000000 0.833300 0.750000 O0+
0.666667 0.166633 0.083333 O0+
0.333333 0.499967 0.416667 O0+
0.166700 0.166700 0.750000 O0+
0.833367 0.500033 0.083333 O0+
0.500033 0.833367 0.416667 O0+
0.833300 1.000000 0.750000 O0+
0.499967 0.333333 0.083333 O0+
0.166633 0.666667 0.416667 O0+
0.833300 0.833300 0.250000 O0+
0.499967 0.166633 0.583333 O0+
0.166633 0.499967 0.916667 O0+
0.166700 1.000000 0.250000 O0+
0.833367 0.333333 0.583333 O0+
0.500033 0.666667 0.916667 O0+
1.000000 0.166700 0.250000 O0+
0.666667 0.500033 0.583333 O0+
0.333333 0.833367 0.916667 O0+
