Cu2 W2 O8
1.0
4.659265 0.000000 0.589428
0.191601 4.867859 0.138630
0.000000 0.000000 5.828700
Cu W O
2 2 8
direct
0.496200 -0.236200 0.662100 Cu
-0.496200 0.236200 -0.662100 Cu
0.016600 -0.267000 0.174500 W
-0.016600 0.267000 -0.174500 W
0.248100 -0.417100 0.355600 O
-0.248100 0.417100 -0.355600 O
0.224300 -0.432400 0.876900 O
-0.224300 0.432400 -0.876900 O
0.729300 -0.095600 0.385900 O
-0.729300 0.095600 -0.385900 O
0.784500 -0.051200 0.903600 O
-0.784500 0.051200 -0.903600 O
