Li2 Ag6 O4
1.0
5.111531 0.000000 -2.508761
-1.355387 5.121072 -2.761562
0.000000 0.000000 6.461682
Li Ag O
2 6 4
direct
0.250000 0.500000 0.000000 Li
-0.250000 -0.500000 0.000000 Li
0.000000 0.000000 0.000000 Ag
0.500000 0.000000 0.000000 Ag
0.500000 0.500000 0.500000 Ag
0.000000 -0.500000 -0.500000 Ag
0.000000 0.000000 -0.500000 Ag
0.500000 0.000000 0.500000 Ag
0.094500 0.421300 0.189000 O
-0.094500 -0.421300 -0.189000 O
0.405500 0.232300 -0.189000 O
0.594500 -0.232300 0.189000 O
