Na8 Co2 O8
1.0
5.626677 0.000000 0.911323
1.864537 5.098345 1.813091
0.000000 0.000000 8.650000
Na Co O
8 2 8
direct
0.477700 -0.571900 0.920800 Na
-0.512700 -0.110700 0.139900 Na
-0.016400 -0.762900 0.566800 Na
0.478500 -0.915400 0.733500 Na
0.445500 -0.677800 0.313000 Na
-0.017100 -0.387000 0.761600 Na
-0.036200 -0.210500 0.349400 Na
-0.018800 -0.636700 0.174300 Na
0.000000 -0.002600 0.994100 Co
-0.559500 -0.315200 0.502100 Co
-0.426800 -0.321100 0.677900 O
0.247900 -0.519400 0.547400 O
0.246900 -0.992900 0.394600 O
-0.308500 -0.447100 0.369700 O
0.196200 -0.323000 0.109600 O
0.194300 -0.794700 0.938000 O
-0.132200 -0.011300 0.826000 O
0.745300 -0.861500 0.135700 O
