Mg2 Cu4 O6
1.0
3.190000 0.000000 0.000000
0.000000 4.000000 0.000000
0.000000 0.000000 9.350000
Mg Cu O
2 4 6
direct
0.369000 0.250000 0.250000 Mg
-0.369000 0.750000 -0.250000 Mg
0.820000 0.750000 0.086000 Cu
0.820000 -0.250000 0.414000 Cu
-0.820000 1.250000 -0.086000 Cu
-0.820000 -0.750000 0.586000 Cu
0.453000 0.750000 0.250000 O
-0.453000 1.250000 -0.250000 O
0.869000 0.250000 0.094000 O
0.869000 0.250000 0.406000 O
-0.869000 0.750000 -0.094000 O
-0.869000 -0.250000 0.594000 O
