K12 Ir12 O36
1.0
9.480000 0.000000 0.000000
0.000000 9.480000 0.000000
0.000000 0.000000 9.480000
K Ir O
12 12 36
direct
0.000000 0.000000 0.000000 K
0.500000 0.500000 0.000000 K
0.000000 0.500000 0.500000 K
0.500000 0.000000 0.500000 K
0.406500 0.406500 0.406500 K
0.093500 0.093500 0.406500 K
0.406500 0.093500 0.093500 K
0.093500 0.406500 0.093500 K
-0.406500 -0.406500 -0.406500 K
-0.093500 -0.093500 -0.406500 K
-0.406500 -0.093500 -0.093500 K
-0.093500 -0.406500 -0.093500 K
0.592180 0.750000 0.250000 Ir
0.250000 0.592180 0.750000 Ir
0.750000 0.250000 0.592180 Ir
0.250000 -0.092180 -0.250000 Ir
-0.250000 0.250000 -0.092180 Ir
-0.092180 0.750000 0.250000 Ir
-0.592180 -0.750000 -0.250000 Ir
-0.250000 -0.592180 -0.750000 Ir
-0.750000 -0.250000 -0.592180 Ir
-0.250000 0.092180 0.250000 Ir
0.250000 -0.250000 0.092180 Ir
0.092180 -0.750000 -0.250000 Ir
0.616000 0.250000 0.250000 O
0.250000 0.616000 0.250000 O
0.250000 0.250000 0.616000 O
0.250000 -0.116000 0.250000 O
0.250000 0.250000 -0.116000 O
-0.116000 0.250000 0.250000 O
-0.616000 -0.250000 -0.250000 O
-0.250000 -0.616000 -0.250000 O
-0.250000 -0.250000 -0.616000 O
-0.250000 0.116000 -0.250000 O
-0.250000 -0.250000 0.116000 O
0.116000 -0.250000 -0.250000 O
0.250000 0.591000 0.550000 O
0.550000 0.250000 0.591000 O
0.591000 0.550000 0.250000 O
-0.091000 -0.050000 0.250000 O
0.550000 0.250000 -0.091000 O
-0.091000 0.550000 0.250000 O
-0.050000 0.250000 0.591000 O
-0.050000 0.250000 -0.091000 O
0.591000 -0.050000 0.250000 O
0.250000 -0.091000 -0.050000 O
0.250000 0.591000 -0.050000 O
0.250000 -0.091000 0.550000 O
-0.250000 -0.591000 -0.550000 O
-0.550000 -0.250000 -0.591000 O
-0.591000 -0.550000 -0.250000 O
0.091000 0.050000 -0.250000 O
-0.550000 -0.250000 0.091000 O
0.091000 -0.550000 -0.250000 O
0.050000 -0.250000 -0.591000 O
0.050000 -0.250000 0.091000 O
-0.591000 0.050000 -0.250000 O
-0.250000 0.091000 0.050000 O
-0.250000 -0.591000 0.050000 O
-0.250000 0.091000 -0.550000 O
