Eu8 Sr4 Fe8 O28
1.0
5.507000 0.000000 0.000000
0.000000 5.507000 0.000000
0.000000 0.000000 19.876000
Eu Sr Fe O
8 4 8 28
direct
0.229880 0.229880 0.182700 Eu
0.270120 0.729880 0.682700 Eu
0.729880 0.270120 0.682700 Eu
0.729880 0.270120 0.317300 Eu
0.270120 0.729880 0.317300 Eu
-0.229880 -0.229880 0.182700 Eu
0.229880 0.229880 -0.182700 Eu
-0.229880 -0.229880 -0.182700 Eu
0.241490 0.241490 0.000000 Sr
0.258510 0.741490 0.500000 Sr
0.741490 0.258510 0.500000 Sr
-0.241490 -0.241490 0.000000 Sr
0.243800 0.243800 0.402590 Fe
0.256200 0.743800 0.902590 Fe
0.743800 0.256200 0.902590 Fe
0.743800 0.256200 0.097410 Fe
0.256200 0.743800 0.097410 Fe
-0.243800 -0.243800 0.402590 Fe
0.243800 0.243800 -0.402590 Fe
-0.243800 -0.243800 -0.402590 Fe
0.000000 0.500000 0.392470 O
0.000000 0.500000 0.892470 O
0.500000 0.000000 0.107530 O
0.500000 0.000000 -0.392470 O
0.000000 -0.500000 -0.392470 O
0.000000 -0.500000 -0.892470 O
-0.500000 0.000000 -0.107530 O
-0.500000 0.000000 0.392470 O
0.301310 0.301310 0.291990 O
0.198690 0.801310 0.791990 O
0.801310 0.198690 0.791990 O
0.801310 0.198690 0.208010 O
0.198690 0.801310 0.208010 O
-0.301310 -0.301310 0.291990 O
0.301310 0.301310 -0.291990 O
-0.301310 -0.301310 -0.291990 O
0.000000 0.000000 0.089060 O
0.500000 0.500000 0.589060 O
0.500000 0.500000 0.410940 O
0.000000 0.000000 -0.089060 O
0.000000 0.000000 0.379710 O
0.500000 0.500000 0.879710 O
0.500000 0.500000 0.120290 O
0.000000 0.000000 -0.379710 O
0.287650 -0.287650 0.000000 O
0.787650 0.787650 0.500000 O
0.212350 0.212350 0.500000 O
-0.287650 0.287650 0.000000 O
