Li8 La8 Mo16 O64
1.0
9.920000 0.000000 0.000000
0.000000 10.090000 0.000000
0.000000 0.000000 13.580000
La Mo Li O
8 16 8 64
direct
-0.120400 -0.044400 -0.123900 La
0.379600 0.044400 0.623900 La
0.620400 0.455600 0.123900 La
0.120400 0.544400 0.376100 La
0.120400 0.044400 0.123900 La
-0.379600 -0.044400 -0.623900 La
-0.620400 -0.455600 -0.123900 La
-0.120400 -0.544400 -0.376100 La
-0.365900 -0.761300 -0.203300 Mo
0.134100 0.761300 0.703300 Mo
0.865900 -0.261300 0.203300 Mo
0.365900 1.261300 0.296700 Mo
0.365900 0.761300 0.203300 Mo
-0.134100 -0.761300 -0.703300 Mo
-0.865900 0.261300 -0.203300 Mo
-0.365900 -1.261300 -0.296700 Mo
-0.712400 -0.080800 -0.008100 Mo
-0.212400 0.080800 0.508100 Mo
1.212400 0.419200 0.008100 Mo
0.712400 0.580800 0.491900 Mo
0.712400 0.080800 0.008100 Mo
0.212400 -0.080800 -0.508100 Mo
-1.212400 -0.419200 -0.008100 Mo
-0.712400 -0.580800 -0.491900 Mo
-0.087000 -0.724000 -0.025000 Li
0.413000 0.724000 0.525000 Li
0.587000 -0.224000 0.025000 Li
0.087000 1.224000 0.475000 Li
0.087000 0.724000 0.025000 Li
-0.413000 -0.724000 -0.525000 Li
-0.587000 0.224000 -0.025000 Li
-0.087000 -1.224000 -0.475000 Li
-0.299000 -0.693000 -0.312000 O
0.201000 0.693000 0.812000 O
0.799000 -0.193000 0.312000 O
0.299000 1.193000 0.188000 O
0.299000 0.693000 0.312000 O
-0.201000 -0.693000 -0.812000 O
-0.799000 0.193000 -0.312000 O
-0.299000 -1.193000 -0.188000 O
-0.479000 -0.885000 -0.242000 O
0.021000 0.885000 0.742000 O
0.979000 -0.385000 0.242000 O
0.479000 1.385000 0.258000 O
0.479000 0.885000 0.242000 O
-0.021000 -0.885000 -0.742000 O
-0.979000 0.385000 -0.242000 O
-0.479000 -1.385000 -0.258000 O
-0.250000 -0.834000 -0.124000 O
0.250000 0.834000 0.624000 O
0.750000 -0.334000 0.124000 O
0.250000 1.334000 0.376000 O
0.250000 0.834000 0.124000 O
-0.250000 -0.834000 -0.624000 O
-0.750000 0.334000 -0.124000 O
-0.250000 -1.334000 -0.376000 O
-0.455000 -0.642000 -0.134000 O
0.045000 0.642000 0.634000 O
0.955000 -0.142000 0.134000 O
0.455000 1.142000 0.366000 O
0.455000 0.642000 0.134000 O
-0.045000 -0.642000 -0.634000 O
-0.955000 0.142000 -0.134000 O
-0.455000 -1.142000 -0.366000 O
-0.660000 0.056000 -0.010000 O
-0.160000 -0.056000 0.510000 O
1.160000 0.556000 0.010000 O
0.660000 0.444000 0.490000 O
0.660000 -0.056000 0.010000 O
0.160000 0.056000 -0.510000 O
-1.160000 -0.556000 -0.010000 O
-0.660000 -0.444000 -0.490000 O
-0.707000 -0.040000 -0.203000 O
-0.207000 0.040000 0.703000 O
1.207000 0.460000 0.203000 O
0.707000 0.540000 0.297000 O
0.707000 0.040000 0.203000 O
0.207000 -0.040000 -0.703000 O
-1.207000 -0.460000 -0.203000 O
-0.707000 -0.540000 -0.297000 O
-0.890000 -0.105000 -0.047000 O
-0.390000 0.105000 0.547000 O
1.390000 0.395000 0.047000 O
0.890000 0.605000 0.453000 O
0.890000 0.105000 0.047000 O
0.390000 -0.105000 -0.547000 O
-1.390000 -0.395000 -0.047000 O
-0.890000 -0.605000 -0.453000 O
-0.605000 -0.214000 -0.060000 O
-0.105000 0.214000 0.560000 O
1.105000 0.286000 0.060000 O
0.605000 0.714000 0.440000 O
0.605000 0.214000 0.060000 O
0.105000 -0.214000 -0.560000 O
-1.105000 -0.286000 -0.060000 O
-0.605000 -0.714000 -0.440000 O
