Nd2 Cu1 O4
1.0
3.769863 0.000000 -1.162394
-0.358411 3.752787 -1.162394
0.000000 0.000000 6.694387
Cu Nd O
1 2 4
direct
0.000000 0.000000 0.000000 Cu
0.351300 0.351300 0.702600 Nd
-0.351300 -0.351300 -0.702600 Nd
-0.500000 0.000000 0.000000 O
0.000000 -0.500000 0.000000 O
-0.250000 0.250000 0.500000 O
0.250000 -0.250000 0.500000 O
