Ca2 S2 O8
1.0
4.685767 0.000000 0.000000
-0.530888 4.655596 0.000000
0.000000 0.000000 6.999000
Ca S O
2 2 8
direct
0.347800 0.347800 0.250000 Ca
-0.347800 -0.347800 0.750000 Ca
0.155600 0.155600 0.750000 S
-0.155600 -0.155600 1.250000 S
-0.154300 0.185700 0.750000 O
0.154300 -0.185700 1.250000 O
0.185700 -0.154300 -0.250000 O
-0.185700 0.154300 -0.750000 O
0.297200 0.297200 0.581400 O
-0.297200 -0.297200 1.081400 O
0.297200 0.297200 -0.081400 O
-0.297200 -0.297200 -0.581400 O
