Bi12 Ru12 O44
1.0
9.302000 0.000000 0.000000
0.000000 9.302000 0.000000
0.000000 0.000000 9.302000
Bi Ru O
12 12 44
direct
0.000000 0.000000 0.000000 Bi
0.500000 0.500000 0.000000 Bi
0.000000 0.500000 0.500000 Bi
0.500000 0.000000 0.500000 Bi
0.383790 0.383790 0.383790 Bi
0.116210 0.116210 0.383790 Bi
0.383790 0.116210 0.116210 Bi
0.116210 0.383790 0.116210 Bi
-0.383790 -0.383790 -0.383790 Bi
-0.116210 -0.116210 -0.383790 Bi
-0.383790 -0.116210 -0.116210 Bi
-0.116210 -0.383790 -0.116210 Bi
0.389700 0.750000 0.250000 Ru
0.250000 0.389700 0.750000 Ru
0.750000 0.250000 0.389700 Ru
0.250000 0.110300 -0.250000 Ru
-0.250000 0.250000 0.110300 Ru
0.110300 0.750000 0.250000 Ru
-0.389700 -0.750000 -0.250000 Ru
-0.250000 -0.389700 -0.750000 Ru
-0.750000 -0.250000 -0.389700 Ru
-0.250000 -0.110300 0.250000 Ru
0.250000 -0.250000 -0.110300 Ru
-0.110300 -0.750000 -0.250000 Ru
0.590000 0.250000 0.250000 O
0.250000 0.590000 0.250000 O
0.250000 0.250000 0.590000 O
0.250000 -0.090000 0.250000 O
0.250000 0.250000 -0.090000 O
-0.090000 0.250000 0.250000 O
-0.590000 -0.250000 -0.250000 O
-0.250000 -0.590000 -0.250000 O
-0.250000 -0.250000 -0.590000 O
-0.250000 0.090000 -0.250000 O
-0.250000 -0.250000 0.090000 O
0.090000 -0.250000 -0.250000 O
0.152000 0.152000 0.152000 O
0.348000 0.348000 0.152000 O
0.152000 0.348000 0.348000 O
0.348000 0.152000 0.348000 O
-0.152000 -0.152000 -0.152000 O
-0.348000 -0.348000 -0.152000 O
-0.152000 -0.348000 -0.348000 O
-0.348000 -0.152000 -0.348000 O
0.599000 0.247000 0.547000 O
0.547000 0.599000 0.247000 O
0.247000 0.547000 0.599000 O
0.253000 -0.047000 0.599000 O
0.547000 -0.099000 0.253000 O
0.253000 0.547000 -0.099000 O
-0.047000 -0.099000 0.247000 O
-0.047000 0.599000 0.253000 O
0.247000 -0.047000 -0.099000 O
0.599000 0.253000 -0.047000 O
-0.099000 0.247000 -0.047000 O
-0.099000 0.253000 0.547000 O
-0.599000 -0.247000 -0.547000 O
-0.547000 -0.599000 -0.247000 O
-0.247000 -0.547000 -0.599000 O
-0.253000 0.047000 -0.599000 O
-0.547000 0.099000 -0.253000 O
-0.253000 -0.547000 0.099000 O
0.047000 0.099000 -0.247000 O
0.047000 -0.599000 -0.253000 O
-0.247000 0.047000 0.099000 O
-0.599000 -0.253000 0.047000 O
0.099000 -0.247000 0.047000 O
0.099000 -0.253000 -0.547000 O
