Cr9 Ga12
1.0
6.254161 0.000000 1.396792
1.333915 6.110254 1.396792
0.000000 0.000000 7.986000
Cr Ga
9 12
direct
0.000000 0.000000 0.000000 Cr
0.501800 0.501800 -0.324600 Cr
-0.501800 -0.501800 0.324600 Cr
0.229500 0.229500 -0.653100 Cr
-0.229500 -0.229500 0.653100 Cr
0.333200 -0.051600 0.149300 Cr
0.051600 -0.333200 -0.149300 Cr
-0.333200 0.051600 -0.149300 Cr
-0.051600 0.333200 0.149300 Cr
0.280300 0.280300 -0.089500 Ga
-0.280300 -0.280300 0.089500 Ga
0.047500 0.047500 -0.352900 Ga
-0.047500 -0.047500 0.352900 Ga
0.813900 0.394500 -0.152600 Ga
-0.394500 -0.813900 0.152600 Ga
-0.813900 -0.394500 0.152600 Ga
0.394500 0.813900 -0.152600 Ga
0.540400 0.157000 -0.444700 Ga
-0.157000 -0.540400 0.444700 Ga
-0.540400 -0.157000 0.444700 Ga
0.157000 0.540400 -0.444700 Ga
