K2 Co2 O4
1.0
4.860269 0.000000 -2.442512
-3.012245 4.495222 -0.554468
0.000000 0.000000 5.439492
Co K O
2 2 4
direct
0.000000 0.000000 0.000000 Co
0.500000 0.750000 0.250000 Co
0.000000 0.500000 0.500000 K
0.500000 0.250000 -0.250000 K
0.880000 0.875000 0.255000 O
0.620000 -0.255000 0.625000 O
-0.620000 0.005000 -0.875000 O
1.120000 1.375000 -0.005000 O
