Rb4 Bi4 Mo8 O32
1.0
5.280000 0.000000 0.000000
-0.507293 11.618931 0.000000
0.000000 0.000000 12.090000
Bi Rb Mo O
4 4 8 32
direct
0.505400 0.121100 0.876900 Bi
-0.005400 -0.121100 1.376900 Bi
-0.505400 -0.121100 -0.876900 Bi
0.005400 0.121100 -1.376900 Bi
0.516700 0.378100 0.124400 Rb
-0.016700 -0.378100 0.624400 Rb
-0.516700 -0.378100 -0.124400 Rb
0.016700 0.378100 -0.624400 Rb
0.521300 0.114300 0.387400 Mo
-0.021300 -0.114300 0.887400 Mo
-0.521300 -0.114300 -0.387400 Mo
0.021300 0.114300 -0.887400 Mo
0.499800 0.344400 0.645600 Mo
0.000200 -0.344400 1.145600 Mo
-0.499800 -0.344400 -0.645600 Mo
-0.000200 0.344400 -1.145600 Mo
0.286000 0.177000 0.026000 O
0.214000 -0.177000 0.526000 O
-0.286000 -0.177000 -0.026000 O
-0.214000 0.177000 -0.526000 O
0.729000 0.050000 0.041000 O
-0.229000 -0.050000 0.541000 O
-0.729000 -0.050000 -0.041000 O
0.229000 0.050000 -0.541000 O
0.141000 -0.003000 0.201000 O
0.359000 0.003000 0.701000 O
-0.141000 0.003000 -0.201000 O
-0.359000 -0.003000 -0.701000 O
0.416000 0.225000 0.299000 O
0.084000 -0.225000 0.799000 O
-0.416000 -0.225000 -0.299000 O
-0.084000 0.225000 -0.799000 O
0.169000 0.221000 0.786000 O
0.331000 -0.221000 1.286000 O
-0.169000 -0.221000 -0.786000 O
-0.331000 0.221000 -1.286000 O
0.355000 0.449000 0.725000 O
0.145000 -0.449000 1.225000 O
-0.355000 -0.449000 -0.725000 O
-0.145000 0.449000 -1.225000 O
0.673000 0.429000 0.553000 O
-0.173000 -0.429000 1.053000 O
-0.673000 -0.429000 -0.553000 O
0.173000 0.429000 -1.053000 O
0.270000 0.268000 0.565000 O
0.230000 -0.268000 1.065000 O
-0.270000 -0.268000 -0.565000 O
-0.230000 0.268000 -1.065000 O
