K8 Sn2 O8
1.0
6.383703 0.000000 1.112986
2.241700 5.764490 2.031141
0.000000 0.000000 9.700000
Sn K O
2 8 8
direct
0.223400 -0.154430 -0.246920 Sn
-0.223400 0.154430 0.246920 Sn
0.257400 -0.762700 -0.027000 K
-0.257400 0.762700 0.027000 K
0.773700 -0.488000 -0.559000 K
-0.773700 0.488000 0.559000 K
0.720900 -0.038900 -0.381600 K
-0.720900 0.038900 0.381600 K
0.758200 -0.587200 -0.166200 K
-0.758200 0.587200 0.166200 K
0.035200 -0.344100 -0.190300 O
-0.035200 0.344100 0.190300 O
0.038100 -0.842300 -0.352300 O
-0.038100 0.842300 0.352300 O
0.372000 -0.158800 -0.087200 O
-0.372000 0.158800 0.087200 O
0.465400 -0.295500 -0.378400 O
-0.465400 0.295500 0.378400 O
