Sm8 Mo4 O24
1.0
5.287649 0.000000 1.400596
1.679145 9.177840 3.696506
0.000000 0.000000 10.035758
Sm Mo O
8 4 24
direct
0.250000 -0.633600 0.633600 Sm
-0.250000 0.633600 -0.633600 Sm
0.250000 -0.109500 0.109500 Sm
-0.250000 0.109500 -0.109500 Sm
0.118700 -0.714500 1.053300 Sm
0.381300 -1.053300 0.714500 Sm
-0.118700 0.714500 -1.053300 Sm
-0.381300 1.053300 -0.714500 Sm
0.057300 -0.202800 0.508600 Mo
0.442700 -0.508600 0.202800 Mo
-0.057300 0.202800 -0.508600 Mo
-0.442700 0.508600 -0.202800 Mo
-0.083000 0.109000 0.079000 O
0.583000 -0.079000 -0.109000 O
0.083000 -0.109000 -0.079000 O
-0.583000 0.079000 0.109000 O
-0.096000 -0.166000 0.312000 O
0.596000 -0.312000 0.166000 O
0.096000 0.166000 -0.312000 O
-0.596000 0.312000 -0.166000 O
0.034000 -0.391000 0.545000 O
0.466000 -0.545000 0.391000 O
-0.034000 0.391000 -0.545000 O
-0.466000 0.545000 -0.391000 O
0.128000 -0.216000 0.678000 O
0.372000 -0.678000 0.216000 O
-0.128000 0.216000 -0.678000 O
-0.372000 0.678000 -0.216000 O
-0.227000 -0.075000 0.519000 O
0.727000 -0.519000 0.075000 O
0.227000 0.075000 -0.519000 O
-0.727000 0.519000 -0.075000 O
0.346000 -0.167000 0.389000 O
0.154000 -0.389000 0.167000 O
-0.346000 0.167000 -0.389000 O
-0.154000 0.389000 -0.167000 O
