Cr4 Te8 O22
1.0
6.915902 0.000000 -1.180914
0.000000 7.545000 0.000000
0.000000 0.000000 9.728000
Te Cr O
8 4 22
direct
0.139700 0.859900 0.176200 Te
-0.139700 1.359900 0.323800 Te
-0.139700 -0.859900 -0.176200 Te
0.139700 -1.359900 -0.323800 Te
0.672300 0.861800 0.415800 Te
-0.672300 1.361800 0.084200 Te
-0.672300 -0.861800 -0.415800 Te
0.672300 -1.361800 -0.084200 Te
0.319200 0.501900 0.384200 Cr
-0.319200 1.001900 0.115800 Cr
-0.319200 -0.501900 -0.384200 Cr
0.319200 -1.001900 -0.115800 Cr
0.158000 0.649000 0.486600 O
-0.158000 1.149000 0.013400 O
-0.158000 -0.649000 -0.486600 O
0.158000 -1.149000 -0.013400 O
0.563000 0.641000 0.451700 O
-0.563000 1.141000 0.048300 O
-0.563000 -0.641000 -0.451700 O
0.563000 -1.141000 -0.048300 O
0.468000 0.375000 0.262300 O
-0.468000 0.875000 0.237700 O
-0.468000 -0.375000 -0.262300 O
0.468000 -0.875000 -0.237700 O
0.127000 0.314000 0.342900 O
-0.127000 0.814000 0.157100 O
-0.127000 -0.314000 -0.342900 O
0.127000 -0.814000 -0.157100 O
0.205000 0.644000 0.212100 O
-0.205000 1.144000 0.287900 O
-0.205000 -0.644000 -0.212100 O
0.205000 -1.144000 -0.287900 O
0.500000 0.000000 0.500000 O
-0.500000 0.500000 0.000000 O
