Li12 Cu4 O12
1.0
3.580000 0.000000 0.000000
0.000000 8.710000 0.000000
0.000000 0.000000 8.710000
Cu Li O
4 12 12
direct
0.000000 0.382000 0.382000 Cu
0.500000 0.118000 0.882000 Cu
0.500000 0.882000 0.118000 Cu
0.000000 -0.382000 -0.382000 Cu
0.000000 0.600000 0.170000 Li
0.500000 0.330000 1.100000 Li
0.500000 0.670000 -0.100000 Li
0.000000 -0.600000 -0.170000 Li
0.500000 1.100000 0.330000 Li
0.500000 -0.100000 0.670000 Li
0.000000 0.170000 0.600000 Li
0.000000 -0.170000 -0.600000 Li
0.000000 0.199000 0.199000 Li
0.500000 0.301000 0.699000 Li
0.500000 0.699000 0.301000 Li
0.000000 -0.199000 -0.199000 Li
0.000000 0.170000 0.367000 O
0.500000 0.133000 0.670000 O
0.500000 0.867000 0.330000 O
0.000000 -0.170000 -0.367000 O
0.500000 0.670000 0.133000 O
0.500000 0.330000 0.867000 O
0.000000 0.367000 0.170000 O
0.000000 -0.367000 -0.170000 O
0.000000 0.389000 -0.389000 O
0.500000 0.889000 0.889000 O
0.500000 0.111000 0.111000 O
0.000000 -0.389000 0.389000 O
