Ag16 W8 O32
1.0
5.920000 0.000000 0.000000
0.000000 10.890000 0.000000
0.000000 0.000000 12.030000
W Ag O
8 16 32
direct
0.525500 0.254000 0.000000 W
-0.525500 -0.254000 0.000000 W
-0.025500 0.754000 0.500000 W
1.025500 0.246000 0.500000 W
0.500000 0.000000 0.847500 W
0.000000 0.500000 1.347500 W
0.500000 0.000000 0.138000 W
0.000000 0.500000 0.638000 W
0.987700 0.750900 0.171100 Ag
-0.987700 -0.750900 0.171100 Ag
-0.487700 1.250900 0.671100 Ag
1.487700 -0.250900 0.671100 Ag
0.009200 0.234900 0.817600 Ag
-0.009200 -0.234900 0.817600 Ag
0.490800 0.734900 1.317600 Ag
0.509200 0.265100 1.317600 Ag
0.000000 0.000000 0.987200 Ag
0.500000 0.500000 1.487200 Ag
0.000000 0.000000 0.653100 Ag
0.500000 0.500000 1.153100 Ag
0.000000 0.000000 0.314800 Ag
0.500000 0.500000 0.814800 Ag
0.500000 0.000000 0.509200 Ag
0.000000 0.500000 1.009200 Ag
0.195000 0.368000 0.612000 O
-0.195000 -0.368000 0.612000 O
0.305000 0.868000 1.112000 O
0.695000 0.132000 1.112000 O
0.188000 0.368000 0.378000 O
-0.188000 -0.368000 0.378000 O
0.312000 0.868000 0.878000 O
0.688000 0.132000 0.878000 O
0.815000 0.419000 0.735000 O
-0.815000 -0.419000 0.735000 O
-0.315000 0.919000 1.235000 O
1.315000 0.081000 1.235000 O
0.792000 0.425000 0.263000 O
-0.792000 -0.425000 0.263000 O
-0.292000 0.925000 0.763000 O
1.292000 0.075000 0.763000 O
0.282000 0.162000 0.494000 O
-0.282000 -0.162000 0.494000 O
0.218000 0.662000 0.994000 O
0.782000 0.338000 0.994000 O
0.847000 0.414000 0.496000 O
-0.847000 -0.414000 0.496000 O
-0.347000 0.914000 0.996000 O
1.347000 0.086000 0.996000 O
0.857000 0.189000 0.612000 O
-0.857000 -0.189000 0.612000 O
-0.357000 0.689000 1.112000 O
1.357000 0.311000 1.112000 O
0.900000 0.193000 0.379000 O
-0.900000 -0.193000 0.379000 O
-0.400000 0.693000 0.879000 O
1.400000 0.307000 0.879000 O
