Na2 H12 Cl2 O10
1.0
5.487690 0.000000 0.217530
2.023596 5.754829 1.975030
0.000000 0.000000 8.832000
Cl Na O H
2 2 10 12
direct
0.094400 0.183900 0.131800 Cl
-0.094400 -0.183900 -0.131800 Cl
0.263700 0.458600 0.395600 Na
-0.263700 -0.458600 -0.395600 Na
0.812400 0.176600 0.132900 O
-0.812400 -0.176600 -0.132900 O
0.171000 0.185800 0.299100 O
-0.171000 -0.185800 -0.299100 O
0.825900 -0.279800 0.324200 O
-0.825900 0.279800 -0.324200 O
0.481000 0.598100 0.165400 O
-0.481000 -0.598100 -0.165400 O
0.298700 -0.252400 0.509100 O
-0.298700 0.252400 -0.509100 O
0.182000 0.141000 0.723000 H
-0.182000 -0.141000 -0.723000 H
0.273000 0.301000 0.734000 H
-0.273000 -0.301000 -0.734000 H
0.434000 0.540000 0.844000 H
-0.434000 -0.540000 -0.844000 H
0.412000 0.663000 0.092000 H
-0.412000 -0.663000 -0.092000 H
0.274000 0.869000 0.452000 H
-0.274000 -0.869000 -0.452000 H
0.191000 0.770000 0.573000 H
-0.191000 -0.770000 -0.573000 H
