Al2 W2 O8
1.0
4.538402 0.000000 0.153585
0.102801 4.827891 2.319343
0.000000 0.000000 5.357093
Al W O
2 2 8
direct
-0.485800 0.259000 0.259000 Al
0.485800 -0.259000 -0.259000 Al
0.000000 0.771600 -0.771600 W
0.000000 -0.771600 0.771600 W
-0.301200 0.395300 -0.094500 O
0.301200 0.094500 -0.395300 O
0.301200 -0.395300 0.094500 O
-0.301200 -0.094500 0.395300 O
-0.779100 0.114100 0.114100 O
0.779100 -0.114100 -0.114100 O
-0.197500 0.402300 0.402300 O
0.197500 -0.402300 -0.402300 O
