$cell vectors
1.0
 13.2899937464998619    0.0000000000000000    0.0000000000000000
  0.0000000000000000    8.4229960366266621    0.0000000000000000
 -2.0520515828621373    0.0000000000000000   10.2230773734968192
 16 2 34
Direct
  0.0587999999999998    0.2445000000000002    0.7042999999999998 # U1
  0.2046999999999998    0.0000000000000000    0.4551999999999999 # U2
  0.6820000000000003    0.0000000000000000    0.0219000000000001 # U3
  0.5588000000000001    0.7444999999999999    0.7042999999999998 # U4
  0.7047000000000001    0.5000000000000003    0.4551999999999999 # U5
  0.1819999999999999    0.5000000000000003    0.0219000000000001 # U6
  0.9411999999999997    0.7555000000000003    0.2956999999999997 # U7
  0.7952999999999999    0.0000000000000000    0.5448000000000001 # U8
  0.3179999999999998    0.0000000000000000    0.9780999999999999 # U9
  0.4412000000000000    0.2555000000000001    0.2956999999999997 # U10
  0.2953000000000000    0.5000000000000003    0.5448000000000001 # U11
  0.8180000000000003    0.5000000000000003    0.9780999999999999 # U12
  0.9411999999999997    0.2445000000000002    0.2956999999999997 # U13
  0.4412000000000000    0.7444999999999999    0.2956999999999997 # U14
  0.0587999999999998    0.7555000000000003    0.7042999999999998 # U15
  0.5588000000000001    0.2555000000000001    0.7042999999999998 # U16
  0.0000000000000000    0.0000000000000000    0.0000000000000000 # Cr1
  0.5000000000000002    0.5000000000000003    0.0000000000000000 # Cr2
  0.1273000000000002    0.3050999999999998    0.4669999999999998 # S1
  0.1326999999999998    0.1888999999999999    0.9735000000000001 # S2
  0.2106000000000001    0.0000000000000000    0.7218999999999997 # S3
  0.0569000000000000    0.0000000000000000    0.2258999999999999 # S4
  0.3020999999999999    0.0000000000000000    0.2432999999999998 # S5
  0.5201999999999999    0.0000000000000000    0.1666999999999997 # S6
  0.0000000000000002    0.0000000000000000    0.5000000000000000 # S7
  0.6273000000000000    0.8051000000000001    0.4669999999999998 # S8
  0.6327000000000000    0.6889000000000002    0.9735000000000001 # S9
  0.7106000000000000    0.5000000000000003    0.7218999999999997 # S10
  0.5568999999999997    0.5000000000000003    0.2258999999999999 # S11
  0.8020999999999998    0.5000000000000003    0.2432999999999998 # S12
  0.0202000000000000    0.5000000000000003    0.1666999999999997 # S13
  0.5000000000000000    0.5000000000000003    0.5000000000000000 # S14
  0.8727000000000000    0.6949000000000001    0.5329999999999997 # S15
  0.8672999999999998    0.8111000000000000    0.0265000000000000 # S16
  0.7894000000000000    0.0000000000000000    0.2780999999999998 # S17
  0.9431000000000000    0.0000000000000000    0.7740999999999997 # S18
  0.6979000000000002    0.0000000000000000    0.7566999999999997 # S19
  0.4798000000000001    0.0000000000000000    0.8332999999999997 # S20
  0.3727000000000000    0.1948999999999998    0.5329999999999997 # S21
  0.3673000000000000    0.3110999999999997    0.0265000000000000 # S22
  0.2894000000000000    0.5000000000000003    0.2780999999999998 # S23
  0.4430999999999998    0.5000000000000003    0.7740999999999997 # S24
  0.1978999999999999    0.5000000000000003    0.7567000000000002 # S25
  0.9798000000000000    0.5000000000000003    0.8332999999999997 # S26
  0.8727000000000000    0.3050999999999998    0.5329999999999997 # S27
  0.8672999999999998    0.1888999999999999    0.0265000000000000 # S28
  0.3727000000000000    0.8051000000000001    0.5329999999999997 # S29
  0.3673000000000000    0.6889000000000002    0.0265000000000000 # S30
  0.1272999999999998    0.6949000000000001    0.4669999999999998 # S31
  0.1327000000000002    0.8111000000000000    0.9735000000000001 # S32
  0.6273000000000000    0.1948999999999998    0.4669999999999998 # S33
  0.6327000000000000    0.3111000000000003    0.9735000000000001 # S34
