$cell vectors
1.0
 16.6499921654795102    0.0000000000000000    0.0000000000000000
 -2.3753536987087220   10.6441730008861644    0.0000000000000000
  0.0000000000000000    0.0000000000000000   14.0819933738307803
 36 14 60
Direct
  0.1170000000000001    0.4740000000000000    0.0000000000000000 # La1
  0.8820000000000002    0.5270000000000000    0.0000000000000000 # La2
  0.2309999999999999    0.1709999999999998    0.0000000000000000 # La3
  0.7720000000000000    0.8299999999999994    0.0000000000000000 # La4
  0.4760000000000001    0.1349999999999998    0.0000000000000000 # La5
  0.5350000000000001    0.8489999999999993    0.0000000000000000 # La6
  0.0320000000000000    0.7669999999999996    0.2010000000000001 # La7
  0.9730000000000001    0.2270000000000001    0.2000000000000000 # La8
  0.3229999999999998    0.8809999999999993    0.2039999999999998 # La9
  0.6790000000000000    0.1170000000000000    0.2039999999999998 # La10
  0.3209999999999998    0.4789999999999999    0.2060000000000000 # La11
  0.6520000000000002    0.5349999999999997    0.1849999999999998 # La12
  0.6169999999999999    0.4740000000000000    0.4999999999999999 # La13
  0.3820000000000003    0.5270000000000000    0.4999999999999999 # La14
  0.7310000000000000    0.1709999999999998    0.4999999999999999 # La15
  0.2720000000000000    0.8299999999999994    0.4999999999999999 # La16
  0.9760000000000000    0.1350000000000003    0.4999999999999999 # La17
  0.0350000000000003    0.8489999999999993    0.4999999999999999 # La18
  0.5320000000000001    0.7670000000000001    0.7010000000000000 # La19
  0.4729999999999999    0.2270000000000001    0.7000000000000001 # La20
  0.8230000000000002    0.8809999999999998    0.7039999999999997 # La21
  0.1790000000000002    0.1170000000000000    0.7039999999999997 # La22
  0.8210000000000001    0.4789999999999999    0.7060000000000000 # La23
  0.1520000000000000    0.5349999999999997    0.6849999999999998 # La24
  0.0320000000000000    0.7670000000000001    0.7989999999999999 # La25
  0.9730000000000001    0.2270000000000001    0.7999999999999998 # La26
  0.3230000000000000    0.8809999999999998    0.7960000000000002 # La27
  0.6790000000000000    0.1170000000000000    0.7960000000000002 # La28
  0.3210000000000002    0.4789999999999999    0.7939999999999999 # La29
  0.6520000000000002    0.5349999999999997    0.8149999999999997 # La30
  0.5320000000000001    0.7669999999999996    0.2989999999999999 # La31
  0.4729999999999999    0.2270000000000001    0.2999999999999999 # La32
  0.8230000000000001    0.8809999999999993    0.2960000000000002 # La33
  0.1790000000000002    0.1170000000000000    0.2960000000000002 # La34
  0.8210000000000001    0.4789999999999999    0.2940000000000000 # La35
  0.1520000000000000    0.5349999999999997    0.3150000000000002 # La36
  0.1809999999999999    0.8179999999999996    0.0000000000000000 # Mn1
  0.8129999999999998    0.1859999999999998    0.0000000000000000 # Mn2
  0.3250000000000000    0.6760000000000002    0.0000000000000000 # Mn3
  0.6649999999999999    0.3349999999999997    0.0000000000000000 # Mn4
  0.5420000000000000    0.5989999999999996    0.0000000000000000 # Mn5
  0.4729999999999999    0.4599999999999999    0.0690000000000000 # Mn6
  0.6810000000000003    0.8179999999999996    0.4999999999999999 # Mn7
  0.3130000000000000    0.1859999999999998    0.4999999999999999 # Mn8
  0.8250000000000000    0.6760000000000002    0.4999999999999999 # Mn9
  0.1650000000000001    0.3349999999999997    0.4999999999999999 # Mn10
  0.0419999999999999    0.5989999999999996    0.4999999999999999 # Mn11
  0.9730000000000000    0.4599999999999999    0.5690000000000000 # Mn12
  0.4729999999999999    0.4599999999999999    0.9309999999999999 # Mn13
  0.9730000000000000    0.4599999999999999    0.4310000000000000 # Mn14
  0.0420000000000000    0.7059999999999994    0.0000000000000000 # S1
  0.9670000000000001    0.3069999999999998    0.0000000000000000 # S2
  0.3179999999999999    0.4380000000000001    0.0000000000000000 # S3
  0.7140000000000000    0.5559999999999998    0.0000000000000000 # S4
  0.3559999999999999    0.9119999999999997    0.0000000000000000 # S5
  0.6619999999999999    0.0769999999999999    0.0000000000000000 # S6
  0.1720000000000000    0.9699999999999995    0.1289999999999999 # S7
  0.8330000000000000    0.0420000000000001    0.1340000000000001 # S8
  0.2129999999999999    0.6649999999999997    0.1289999999999999 # S9
  0.7810000000000000    0.3589999999999996    0.1349999999999998 # S10
  0.4260000000000001    0.7149999999999999    0.1310000000000000 # S11
  0.5600000000000001    0.3210000000000000    0.1229999999999999 # S12
  0.1480000000000001    0.2959999999999999    0.1460000000000001 # S13
  0.8500000000000000    0.7029999999999997    0.1500000000000000 # S14
  0.3460000000000001    0.1870000000000000    0.1570000000000001 # S15
  0.6450000000000001    0.7869999999999999    0.1409999999999998 # S16
  0.4999999999999999    0.0040000000000001    0.2029999999999998 # S17
  0.0060000000000000    0.5069999999999998    0.2000000000000000 # S18
  0.5419999999999999    0.7060000000000000    0.4999999999999999 # S19
  0.4670000000000002    0.3069999999999998    0.4999999999999999 # S20
  0.8180000000000001    0.4380000000000001    0.4999999999999999 # S21
  0.2140000000000001    0.5559999999999998    0.4999999999999999 # S22
  0.8560000000000000    0.9119999999999997    0.4999999999999999 # S23
  0.1619999999999999    0.0769999999999999    0.4999999999999999 # S24
  0.6719999999999999    0.9699999999999999    0.6289999999999999 # S25
  0.3329999999999999    0.0420000000000001    0.6340000000000002 # S26
  0.7130000000000001    0.6649999999999997    0.6289999999999999 # S27
  0.2810000000000002    0.3590000000000001    0.6350000000000002 # S28
  0.9260000000000000    0.7149999999999999    0.6309999999999999 # S29
  0.0600000000000000    0.3210000000000000    0.6229999999999998 # S30
  0.6480000000000000    0.2959999999999999    0.6460000000000000 # S31
  0.3500000000000002    0.7029999999999997    0.6499999999999999 # S32
  0.8460000000000000    0.1870000000000000    0.6569999999999999 # S33
  0.1450000000000002    0.7869999999999999    0.6409999999999998 # S34
  0.0000000000000001    0.0040000000000001    0.7029999999999996 # S35
  0.5060000000000001    0.5069999999999998    0.7000000000000001 # S36
  0.1720000000000000    0.9699999999999999    0.8710000000000000 # S37
  0.8330000000000000    0.0420000000000001    0.8660000000000001 # S38
  0.2130000000000002    0.6650000000000000    0.8710000000000000 # S39
  0.7810000000000001    0.3590000000000001    0.8649999999999998 # S40
  0.4260000000000001    0.7149999999999999    0.8690000000000000 # S41
  0.5600000000000001    0.3210000000000000    0.8770000000000000 # S42
  0.1480000000000001    0.2959999999999999    0.8539999999999999 # S43
  0.8500000000000000    0.7029999999999997    0.8500000000000000 # S44
  0.3460000000000001    0.1870000000000000    0.8430000000000000 # S45
  0.6450000000000001    0.7869999999999999    0.8589999999999998 # S46
  0.4999999999999999    0.0040000000000001    0.7969999999999998 # S47
  0.0060000000000000    0.5069999999999998    0.7999999999999998 # S48
  0.6719999999999998    0.9699999999999995    0.3710000000000001 # S49
  0.3329999999999999    0.0420000000000001    0.3659999999999999 # S50
  0.7130000000000001    0.6649999999999997    0.3710000000000001 # S51
  0.2810000000000002    0.3590000000000001    0.3650000000000002 # S52
  0.9260000000000000    0.7149999999999999    0.3689999999999999 # S53
  0.0600000000000000    0.3210000000000000    0.3770000000000001 # S54
  0.6480000000000000    0.2959999999999999    0.3539999999999998 # S55
  0.3500000000000002    0.7029999999999997    0.3500000000000000 # S56
  0.8460000000000000    0.1870000000000000    0.3430000000000000 # S57
  0.1449999999999999    0.7869999999999999    0.3589999999999998 # S58
  0.0000000000000001    0.0040000000000001    0.2969999999999998 # S59
  0.5060000000000001    0.5069999999999998    0.2999999999999999 # S60
