$cell vectors
1.0
 12.8619939478917384    0.0000000000000000    0.0000000000000000
  0.0000000000000000   11.2049947275794572    0.0000000000000000
 -2.4344899442270513    0.0000000000000000    7.7684668590611343
 2 8 28 8 56
Direct
  0.0000000000000000    0.0000000000000000    0.0000000000000000 # Ge1
  0.5000000000000002    0.5000000000000000    0.0000000000000000 # Ge2
  0.1489999999999999    0.1221000000000001    0.1340000000000001 # Se1
  0.4532000000000003    0.3793999999999998    0.2029999999999999 # Se2
  0.6490000000000001    0.6220999999999997    0.1340000000000001 # Se3
 -0.0468000000000000   -0.1206000000000001    0.2029999999999999 # Se4
 -0.1489999999999999    0.1221000000000001   -0.1340000000000001 # Se5
  0.5467999999999998    0.3793999999999998   -0.2029999999999999 # Se6
  0.3509999999999999    0.6220999999999997   -0.1340000000000001 # Se7
  0.0468000000000000   -0.1206000000000001   -0.2029999999999999 # Se8
  0.4737000000000002    0.0792000000000002    0.1913999999999998 # O1
  0.1702000000000001    0.4308999999999998    0.0881999999999998 # O2
  0.2222000000000000    0.7199999999999998    0.1441999999999998 # O3
  0.3599999999999999    0.5679999999999997    0.4488999999999997 # O4
  0.0010000000000002    0.2979000000000002    0.3009000000000003 # O5
  0.3522000000000001   -0.0119999999999999    0.4135000000000003 # O6
  0.1811000000000000    0.7679999999999999    0.4795000000000001 # O7
  0.9737000000000001    0.5791999999999997    0.1913999999999998 # O8
  0.6702000000000000    0.9309000000000002    0.0881999999999998 # O9
  0.7221999999999998    0.2199999999999998    0.1441999999999998 # O10
  0.8600000000000000    0.0680000000000002    0.4488999999999997 # O11
  0.5010000000000000    0.7978999999999996    0.3009000000000003 # O12
  0.8522000000000004    0.4880000000000001    0.4135000000000003 # O13
  0.6811000000000004    0.2679999999999998    0.4795000000000001 # O14
  0.5263000000000002    0.0792000000000002    0.8086000000000001 # O15
  0.8297999999999999    0.4309000000000002    0.9118000000000002 # O16
  0.7778000000000003    0.7199999999999998    0.8558000000000002 # O17
  0.6400000000000001    0.5680000000000002    0.5511000000000003 # O18
  0.9990000000000006    0.2979000000000002    0.6991000000000004 # O19
  0.6478000000000000   -0.0119999999999999    0.5864999999999998 # O20
  0.8189000000000000    0.7679999999999999    0.5205000000000000 # O21
  0.0263000000000000    0.5792000000000002    0.8086000000000001 # O22
  0.3298000000000001    0.9309000000000002    0.9118000000000002 # O23
  0.2777999999999998    0.2199999999999998    0.8558000000000002 # O24
  0.1399999999999999    0.0680000000000002    0.5511000000000003 # O25
  0.4990000000000002    0.7978999999999996    0.6991000000000004 # O26
  0.1477999999999998    0.4880000000000001    0.5864999999999998 # O27
  0.3188999999999998    0.2679999999999998    0.5205000000000000 # O28
  0.1470000000000000    0.2782000000000002    0.5812000000000002 # Na1
  0.1665999999999999    0.5740000000000002    0.3204999999999999 # Na2
  0.6470000000000001    0.7781999999999997    0.5812000000000002 # Na3
  0.6666000000000002    0.0740000000000002    0.3204999999999999 # Na4
  0.8530000000000002    0.2782000000000002    0.4188000000000000 # Na5
  0.8334000000000003    0.5740000000000002    0.6795000000000002 # Na6
  0.3530000000000000    0.7781999999999997    0.4188000000000000 # Na7
  0.3334000000000000    0.0740000000000002    0.6795000000000002 # Na8
  0.4140000000000002    0.0350000000000000    0.1389999999999998 # H1
  0.4430000000000001    0.1660000000000002    0.1760000000000001 # H2
  0.1469999999999999    0.3650000000000001    0.0960000000000003 # H3
  0.2389999999999999    0.4210000000000000    0.1380000000000002 # H4
  0.1729999999999999    0.7829999999999996    0.1230000000000000 # H5
  0.2520000000000002    0.7060000000000001    0.0740000000000001 # H6
  0.3920000000000001    0.5580000000000002    0.5709999999999998 # H7
  0.4079999999999999    0.5599999999999999    0.3900000000000001 # H8
  0.0400000000000001    0.3599999999999999    0.2780000000000001 # H9
  0.0019999999999999    0.2480000000000002    0.1989999999999998 # H10
  0.2829999999999999    0.0119999999999999    0.3330000000000000 # H11
  0.4130000000000002    0.0110000000000002    0.3730000000000002 # H12
  0.1270000000000001    0.8059999999999998    0.4729999999999999 # H13
  0.1999999999999998    0.7199999999999998    0.5499999999999998 # H14
  0.9139999999999999    0.5350000000000000    0.1389999999999998 # H15
  0.9430000000000005    0.6659999999999998    0.1760000000000001 # H16
  0.6470000000000001    0.8649999999999997    0.0960000000000003 # H17
  0.7390000000000002    0.9210000000000000    0.1380000000000002 # H18
  0.6730000000000002    0.2829999999999998    0.1230000000000000 # H19
  0.7520000000000001    0.2060000000000000    0.0740000000000001 # H20
  0.8919999999999999    0.0580000000000002    0.5709999999999998 # H21
  0.9080000000000003    0.0600000000000000    0.3900000000000001 # H22
  0.5400000000000004    0.8599999999999999    0.2780000000000001 # H23
  0.5020000000000002    0.7479999999999998    0.1989999999999998 # H24
  0.7830000000000001    0.5119999999999999    0.3330000000000000 # H25
  0.9130000000000005    0.5109999999999998    0.3730000000000002 # H26
  0.6269999999999999    0.3059999999999998    0.4729999999999999 # H27
  0.7000000000000000    0.2199999999999998    0.5499999999999998 # H28
  0.5860000000000003    0.0350000000000000    0.8610000000000002 # H29
  0.5569999999999999    0.1660000000000002    0.8240000000000001 # H30
  0.8530000000000002    0.3650000000000001    0.9040000000000006 # H31
  0.7610000000000002    0.4210000000000000    0.8619999999999999 # H32
  0.8269999999999998    0.7829999999999996    0.8769999999999999 # H33
  0.7480000000000000    0.7060000000000001    0.9260000000000002 # H34
  0.6080000000000001    0.5580000000000002    0.4290000000000002 # H35
  0.5920000000000002    0.5599999999999999    0.6099999999999999 # H36
  0.9600000000000000    0.3599999999999999    0.7219999999999998 # H37
  0.9980000000000002    0.2480000000000002    0.8010000000000002 # H38
  0.7170000000000002    0.0119999999999999    0.6670000000000001 # H39
  0.5870000000000001    0.0110000000000002    0.6270000000000006 # H40
  0.8730000000000001    0.8059999999999998    0.5270000000000002 # H41
  0.7999999999999998    0.7199999999999998    0.4500000000000002 # H42
  0.0860000000000001    0.5350000000000000    0.8610000000000002 # H43
  0.0570000000000001    0.6659999999999998    0.8240000000000001 # H44
  0.3530000000000001    0.8649999999999997    0.9040000000000006 # H45
  0.2610000000000000    0.9210000000000000    0.8619999999999999 # H46
  0.3270000000000000    0.2830000000000002    0.8769999999999999 # H47
  0.2480000000000001    0.2060000000000000    0.9260000000000002 # H48
  0.1080000000000002    0.0580000000000002    0.4290000000000002 # H49
  0.0919999999999999    0.0600000000000000    0.6099999999999999 # H50
  0.4600000000000002    0.8599999999999999    0.7219999999999998 # H51
  0.4980000000000004    0.7479999999999998    0.8010000000000002 # H52
  0.2169999999999999    0.5119999999999999    0.6670000000000001 # H53
  0.0870000000000002    0.5110000000000002    0.6270000000000006 # H54
  0.3730000000000002    0.3059999999999998    0.5270000000000002 # H55
  0.3000000000000000    0.2199999999999998    0.4500000000000002 # H56
