$cell vectors
1.0
 12.3929941685758322    0.0000000000000000    0.0000000000000000
  0.0000000000000000    3.7769982227637287    0.0000000000000000
 -5.9123807570976545    0.0000000000000000   14.2035825069011992
 9 15 3
Direct
  0.1746000000000000    0.5000000000000007    0.6143000000000001 # In1
  0.4999999999999998    0.5000000000000007    0.5000000000000001 # In2
  0.4770999999999999    0.0000000000000000    0.2861000000000001 # In3
  0.7706000000000000    0.5000000000000007    0.2691000000000000 # In4
  0.8827000000000002    0.0000000000000000    0.0710999999999999 # In5
  0.8254000000000000    0.5000000000000007    0.3857000000000000 # In6
  0.5228999999999997    0.0000000000000000    0.7139000000000002 # In7
  0.2293999999999999    0.5000000000000007    0.7308999999999999 # In8
  0.1172999999999998    0.0000000000000000    0.9289000000000002 # In9
  0.2679000000000002    0.0000000000000000    0.1017999999999999 # S1
  0.5560999999999998    0.5000000000000007    0.2140000000000001 # S2
  0.0651999999999999    0.0000000000000000    0.2147000000000000 # S3
  0.6120999999999995    0.0000000000000000    0.4547999999999999 # S4
  0.7705999999999998    0.5000000000000007    0.1081999999999998 # S5
  0.8655000000000002    0.0000000000000000    0.3647999999999998 # S6
  0.3529999999999999    0.5000000000000007    0.3203999999999999 # S7
  0.0000000000000000    0.5000000000000007    0.0000000000000000 # S8
  0.7320999999999998    0.0000000000000000    0.8982000000000001 # S9
  0.4438999999999997    0.5000000000000007    0.7860000000000001 # S10
  0.9347999999999996    0.0000000000000000    0.7853000000000000 # S11
  0.3878999999999999    0.0000000000000000    0.5452000000000000 # S12
  0.2294000000000002    0.5000000000000007    0.8918000000000001 # S13
  0.1344999999999998    0.0000000000000000    0.6351999999999998 # S14
  0.6470000000000000    0.5000000000000007    0.6796000000000001 # S15
  0.5000000000000000    0.0000000000000000    0.0000000000000000 # Rb1
  0.1338000000000001    0.5000000000000007    0.4274000000000002 # Rb2
  0.8661999999999999    0.5000000000000007    0.5725999999999999 # Rb3
