$cell vectors
1.0
 14.0879933710075278    0.0000000000000000    0.0000000000000000
  0.0000000000000000    8.1377961708251743    0.0000000000000000
 -9.3329661406760032    0.0000000000000053   26.6955687404802120
 48 16 160
Direct
  0.0039000000000006    0.0000000000000000    0.9990000000000003 # Er1
  0.2451000000000003    0.2404999999999998    0.9980000000000001 # Er2
  0.3961000000000002   -0.0000000000000001    0.1179999999999999 # Er3
  0.1584000000000000    0.2373000000000000    0.1187999999999999 # Er4
  0.1602000000000002   -0.0000000000000002    0.2490999999999999 # Er5
  0.4095000000000002    0.2603000000000003    0.2488000000000002 # Er6
  0.9084000000000000   -0.0000000000000002    0.3689000000000001 # Er7
  0.1518000000000002    0.2412999999999998    0.3668000000000001 # Er8
  0.6498000000000003   -0.0000000000000003    0.4984000000000002 # Er9
  0.4112000000000002    0.2374999999999996    0.4968000000000002 # Er10
  0.4179000000000002   -0.0000000000000004    0.6191000000000002 # Er11
  0.1500000000000000    0.2580999999999998    0.6188000000000000 # Er12
  0.1634000000000002   -0.0000000000000005    0.7483000000000001 # Er13
  0.4051000000000002    0.2405999999999995    0.7486000000000003 # Er14
  0.5712999999999999    0.0000000000000001    0.8680000000000000 # Er15
  0.3319000000000001    0.2396999999999996    0.8681999999999999 # Er16
  0.5039000000000002    0.5000000000000000    0.9990000000000003 # Er17
  0.7451000000000001    0.7404999999999998    0.9980000000000003 # Er18
  0.8961000000000000    0.4999999999999999    0.1179999999999999 # Er19
  0.6583999999999999    0.7373000000000000    0.1187999999999999 # Er20
  0.6601999999999999    0.4999999999999998    0.2490999999999999 # Er21
  0.9095000000000002    0.7603000000000003    0.2488000000000000 # Er22
  0.4083999999999998    0.4999999999999998    0.3689000000000001 # Er23
  0.6518000000000002    0.7412999999999998    0.3668000000000003 # Er24
  0.1498000000000001    0.4999999999999997    0.4984000000000002 # Er25
  0.9112000000000000    0.7375000000000003    0.4968000000000002 # Er26
  0.9179000000000000    0.4999999999999996    0.6191000000000002 # Er27
  0.6500000000000001    0.7580999999999998    0.6188000000000000 # Er28
  0.6634000000000000    0.5000000000000002    0.7483000000000001 # Er29
  0.9051000000000000    0.7406000000000001    0.7486000000000003 # Er30
  0.0713000000000001    0.5000000000000001    0.8680000000000000 # Er31
  0.8319000000000000    0.7396999999999997    0.8681999999999999 # Er32
  0.2451000000000003    0.7595000000000002    0.9980000000000001 # Er33
  0.1584000000000000    0.7626999999999999    0.1187999999999999 # Er34
  0.4095000000000002    0.7397000000000001    0.2488000000000002 # Er35
  0.1518000000000002    0.7587000000000003    0.3668000000000001 # Er36
  0.4112000000000002    0.7625000000000004    0.4968000000000002 # Er37
  0.1500000000000000    0.7418999999999999    0.6188000000000000 # Er38
  0.4051000000000002    0.7594000000000001    0.7486000000000003 # Er39
  0.3319000000000001    0.7602999999999999    0.8681999999999999 # Er40
  0.7451000000000001    0.2594999999999995    0.9980000000000003 # Er41
  0.6583999999999999    0.2626999999999998    0.1187999999999999 # Er42
  0.9094999999999999    0.2397000000000000    0.2488000000000002 # Er43
  0.6518000000000002    0.2587000000000004    0.3668000000000003 # Er44
  0.9112000000000000    0.2624999999999997    0.4968000000000002 # Er45
  0.6500000000000001    0.2419000000000000    0.6188000000000000 # Er46
  0.9051000000000000    0.2594000000000001    0.7486000000000003 # Er47
  0.8319000000000000    0.2602999999999999    0.8681999999999999 # Er48
  0.4840000000000002    0.0000000000000000    0.9920000000000002 # K1
  0.9160000000000000   -0.0000000000000001    0.1259999999999999 # K2
  0.6550000000000001   -0.0000000000000002    0.2440000000000000 # K3
  0.4090000000000000   -0.0000000000000002    0.3700000000000002 # K4
  0.1550000000000002   -0.0000000000000003    0.4930000000000000 # K5
  0.9030000000000000   -0.0000000000000004    0.6129999999999999 # K6
  0.6620000000000001   -0.0000000000000005    0.7490000000000001 # K7
  0.0720000000000001    0.0000000000000001    0.8690000000000001 # K8
  0.9840000000000000    0.5000000000000000    0.9920000000000002 # K9
  0.4159999999999998    0.4999999999999999    0.1259999999999999 # K10
  0.1550000000000000    0.4999999999999998    0.2440000000000000 # K11
  0.9089999999999999    0.4999999999999998    0.3700000000000002 # K12
  0.6550000000000000    0.4999999999999997    0.4930000000000000 # K13
  0.4029999999999999    0.4999999999999996    0.6129999999999999 # K14
  0.1619999999999999    0.5000000000000002    0.7490000000000001 # K15
  0.5720000000000002    0.5000000000000001    0.8690000000000001 # K16
  0.1090000000000000    0.1540000000000003    0.1820000000000000 # F1
  0.2750000000000001    0.3399999999999999    0.1850000000000001 # F2
  0.4379999999999999    0.1660000000000002    0.1830000000000001 # F3
  0.1260000000000001    0.3380000000000000    0.4320000000000001 # F4
  0.2860000000000001    0.1679999999999997    0.4310000000000002 # F5
  0.4600000000000001    0.3220000000000002    0.4340000000000001 # F6
  0.1000000000000003    0.1609999999999998    0.6810000000000002 # F7
  0.2719999999999999    0.3299999999999999    0.6840000000000002 # F8
  0.4370000000000001    0.1670000000000000    0.6810000000000002 # F9
  0.1290000000000002    0.3329999999999995    0.9350000000000001 # F10
  0.2970000000000002    0.1760000000000000    0.9360000000000003 # F11
  0.4620000000000002    0.3240000000000001    0.9340000000000003 # F12
  0.6949999999999998   -0.0000000000000004    0.5860000000000001 # F13
  0.4710000000000002    0.2290000000000001    0.5850000000000001 # F14
  0.2520000000000000   -0.0000000000000005    0.8369999999999999 # F15
  0.4560000000000002    0.2219999999999995    0.8330000000000001 # F16
  0.3730000000000000   -0.0000000000000003    0.5380000000000001 # F17
  0.0870000000000001    0.2789999999999997    0.5340000000000003 # F18
  0.4960000000000000   -0.0000000000000005    0.7779999999999999 # F19
  0.2750000000000005    0.2179999999999996    0.7790000000000004 # F20
  0.3470000000000001    0.0000000000000000    0.0340000000000001 # F21
  0.1010000000000001    0.2270000000000002    0.0280000000000001 # F22
  0.0629999999999999   -0.0000000000000001    0.0810000000000000 # F23
  0.2989999999999999    0.2300000000000000    0.0870000000000001 # F24
  0.8539999999999996   -0.0000000000000002    0.2809999999999999 # F25
  0.0859999999999999    0.2129999999999998    0.2780000000000000 # F26
  0.7209999999999999    0.0000000000000000    0.0210000000000001 # F27
  0.3940000000000000    0.3410000000000001    0.0190000000000002 # F28
  0.6660000000000000   -0.0000000000000001    0.1020000000000001 # F29
  0.0079999999999999    0.3309999999999998    0.0980000000000000 # F30
  0.2609999999999999   -0.0000000000000001    0.1439999999999999 # F31
  0.9659999999999997   -0.0000000000000001    0.2189999999999998 # F32
  0.4680000000000000   -0.0000000000000002    0.2670000000000000 # F33
  0.2670000000000001    0.1660000000000001    0.2589999999999999 # F34
  0.6300000000000000   -0.0000000000000002    0.3590000000000002 # F35
  0.2910000000000000    0.3119999999999998    0.3550000000000001 # F36
  0.4690000000000001   -0.0000000000000003    0.4800000000000000 # F37
  0.1250000000000002   -0.0000000000000004    0.5960000000000001 # F38
  0.2730000000000000    0.1689999999999998    0.5970000000000001 # F39
  0.9569999999999999   -0.0000000000000003    0.5250000000000001 # F40
  0.2890000000000000    0.3499999999999999    0.5180000000000001 # F41
  0.8150000000000002    0.0000000000000001    0.8480000000000002 # F42
  0.1670000000000000    0.3289999999999996    0.8630000000000000 # F43
  0.4210000000000002    0.0000000000000001    0.8950000000000001 # F44
  0.8900000000000002   -0.0000000000000005    0.7680000000000001 # F45
  0.0660000000000004    0.1619999999999998    0.7560000000000001 # F46
  0.5680000000000002   -0.0000000000000004    0.6390000000000001 # F47
  0.2059999999999999   -0.0000000000000002    0.3439999999999999 # F48
  0.4780000000000000    0.2749999999999998    0.3420000000000001 # F49
  0.0940000000000000   -0.0000000000000003    0.4020000000000002 # F50
  0.1330000000000001    0.0000000000000000    0.9760000000000000 # F51
  0.3119999999999998   -0.0000000000000005    0.7260000000000000 # F52
  0.6090000000000002    0.6540000000000001    0.1820000000000000 # F53
  0.7750000000000001    0.8400000000000004    0.1850000000000001 # F54
  0.9379999999999999    0.6660000000000001    0.1829999999999998 # F55
  0.6260000000000001    0.8379999999999999    0.4320000000000002 # F56
  0.7860000000000000    0.6680000000000004    0.4310000000000004 # F57
  0.9600000000000000    0.8220000000000001    0.4340000000000001 # F58
  0.6000000000000001    0.6609999999999996    0.6810000000000002 # F59
  0.7720000000000001    0.8299999999999998    0.6840000000000002 # F60
  0.9370000000000002    0.6670000000000000    0.6810000000000002 # F61
  0.6290000000000000    0.8329999999999996    0.9350000000000002 # F62
  0.7969999999999999    0.6760000000000000    0.9360000000000003 # F63
  0.9620000000000001    0.8240000000000001    0.9340000000000003 # F64
  0.1950000000000000    0.4999999999999996    0.5859999999999999 # F65
  0.9709999999999999    0.7290000000000002    0.5850000000000001 # F66
  0.7520000000000002    0.5000000000000001    0.8369999999999999 # F67
  0.9560000000000000    0.7219999999999995    0.8330000000000001 # F68
  0.8730000000000001    0.4999999999999997    0.5380000000000001 # F69
  0.5870000000000003    0.7790000000000004    0.5340000000000003 # F70
  0.9960000000000002    0.5000000000000001    0.7779999999999999 # F71
  0.7750000000000001    0.7180000000000002    0.7790000000000004 # F72
  0.8470000000000001    0.5000000000000000    0.0340000000000003 # F73
  0.6010000000000002    0.7270000000000002    0.0280000000000001 # F74
  0.5630000000000002    0.4999999999999999    0.0810000000000000 # F75
  0.7989999999999999    0.7300000000000000    0.0870000000000003 # F76
  0.3540000000000003    0.4999999999999998    0.2810000000000003 # F77
  0.5860000000000000    0.7129999999999997    0.2780000000000004 # F78
  0.2209999999999999    0.5000000000000000    0.0209999999999999 # F79
  0.8940000000000002    0.8410000000000002    0.0190000000000002 # F80
  0.1660000000000002    0.4999999999999999    0.1020000000000001 # F81
  0.5080000000000001    0.8309999999999996    0.0980000000000000 # F82
  0.7610000000000001    0.4999999999999999    0.1439999999999999 # F83
  0.4659999999999998    0.4999999999999998    0.2190000000000002 # F84
  0.9680000000000001    0.4999999999999998    0.2670000000000000 # F85
  0.7670000000000000    0.6660000000000000    0.2589999999999999 # F86
  0.1300000000000001    0.4999999999999998    0.3590000000000000 # F87
  0.7909999999999999    0.8119999999999998    0.3550000000000003 # F88
  0.9690000000000002    0.4999999999999997    0.4800000000000000 # F89
  0.6250000000000000    0.4999999999999996    0.5960000000000001 # F90
  0.7730000000000001    0.6689999999999997    0.5970000000000001 # F91
  0.4569999999999999    0.4999999999999997    0.5250000000000001 # F92
  0.7890000000000001    0.8499999999999999    0.5180000000000001 # F93
  0.3150000000000001    0.5000000000000001    0.8480000000000002 # F94
  0.6670000000000001    0.8289999999999996    0.8630000000000000 # F95
  0.9210000000000003    0.5000000000000001    0.8950000000000001 # F96
  0.3900000000000001    0.5000000000000002    0.7680000000000001 # F97
  0.5660000000000003    0.6619999999999998    0.7560000000000001 # F98
  0.0680000000000004    0.4999999999999996    0.6390000000000001 # F99
  0.7060000000000000    0.4999999999999998    0.3440000000000004 # F100
  0.9779999999999998    0.7749999999999999    0.3420000000000001 # F101
  0.5940000000000001    0.4999999999999997    0.4020000000000002 # F102
  0.6330000000000000    0.5000000000000000    0.9760000000000002 # F103
  0.8120000000000001    0.5000000000000002    0.7260000000000000 # F104
  0.1090000000000000    0.8460000000000001    0.1820000000000000 # F105
  0.2750000000000001    0.6599999999999998    0.1850000000000001 # F106
  0.4379999999999999    0.8340000000000001    0.1830000000000001 # F107
  0.1260000000000001    0.6619999999999999    0.4320000000000001 # F108
  0.2860000000000001    0.8319999999999996    0.4310000000000002 # F109
  0.4600000000000001    0.6779999999999999    0.4340000000000001 # F110
  0.1000000000000003    0.8390000000000000    0.6810000000000002 # F111
  0.2719999999999999    0.6699999999999998    0.6840000000000002 # F112
  0.4370000000000001    0.8329999999999997    0.6810000000000002 # F113
  0.1290000000000002    0.6669999999999999    0.9350000000000001 # F114
  0.2970000000000002    0.8240000000000001    0.9360000000000003 # F115
  0.4620000000000002    0.6760000000000000    0.9340000000000003 # F116
  0.4710000000000002    0.7710000000000004    0.5850000000000001 # F117
  0.4560000000000002    0.7780000000000000    0.8330000000000001 # F118
  0.0870000000000005    0.7210000000000002    0.5340000000000003 # F119
  0.2750000000000005    0.7820000000000000    0.7790000000000004 # F120
  0.1010000000000001    0.7730000000000004    0.0280000000000001 # F121
  0.2989999999999999    0.7699999999999998    0.0870000000000001 # F122
  0.0859999999999999    0.7869999999999998    0.2780000000000000 # F123
  0.3940000000000000    0.6589999999999998    0.0190000000000002 # F124
  0.0079999999999999    0.6689999999999999    0.0980000000000000 # F125
  0.2670000000000001    0.8340000000000000    0.2589999999999999 # F126
  0.2910000000000000    0.6879999999999996    0.3550000000000001 # F127
  0.2730000000000000    0.8310000000000002    0.5970000000000001 # F128
  0.2890000000000000    0.6500000000000000    0.5180000000000001 # F129
  0.1670000000000000    0.6709999999999999    0.8630000000000000 # F130
  0.0660000000000004    0.8379999999999997    0.7560000000000001 # F131
  0.4780000000000000    0.7250000000000004    0.3420000000000001 # F132
  0.6090000000000002    0.3460000000000001    0.1820000000000000 # F133
  0.7750000000000001    0.1599999999999999    0.1850000000000001 # F134
  0.9379999999999999    0.3340000000000002    0.1829999999999998 # F135
  0.6260000000000001    0.1620000000000001    0.4320000000000002 # F136
  0.7860000000000000    0.3319999999999997    0.4310000000000004 # F137
  0.9600000000000000    0.1780000000000000    0.4340000000000001 # F138
  0.6000000000000001    0.3390000000000000    0.6810000000000002 # F139
  0.7720000000000001    0.1699999999999999    0.6840000000000002 # F140
  0.9370000000000002    0.3329999999999997    0.6810000000000002 # F141
  0.6290000000000000    0.1669999999999999    0.9350000000000002 # F142
  0.7969999999999999    0.3240000000000001    0.9360000000000003 # F143
  0.9620000000000001    0.1760000000000000    0.9340000000000003 # F144
  0.9709999999999999    0.2709999999999997    0.5850000000000001 # F145
  0.9560000000000000    0.2780000000000000    0.8330000000000001 # F146
  0.5870000000000003    0.2209999999999996    0.5340000000000003 # F147
  0.7750000000000001    0.2820000000000000    0.7790000000000004 # F148
  0.6010000000000002    0.2729999999999997    0.0280000000000001 # F149
  0.7989999999999999    0.2699999999999999    0.0870000000000003 # F150
  0.5860000000000000    0.2869999999999999    0.2780000000000004 # F151
  0.8940000000000002    0.1589999999999999    0.0190000000000002 # F152
  0.5080000000000001    0.1690000000000001    0.0980000000000000 # F153
  0.7670000000000000    0.3340000000000002    0.2589999999999999 # F154
  0.7909999999999999    0.1879999999999997    0.3550000000000003 # F155
  0.7730000000000001    0.3310000000000001    0.5970000000000001 # F156
  0.7890000000000001    0.1500000000000000    0.5180000000000001 # F157
  0.6670000000000001    0.1709999999999999    0.8630000000000000 # F158
  0.5660000000000003    0.3379999999999998    0.7560000000000001 # F159
  0.9779999999999998    0.2249999999999997    0.3420000000000001 # F160
