$cell vectors
1.0
 10.4229950955431203    0.0000000000000000    0.0000000000000000
  0.0000000000000000   18.6869912069859261    0.0000000000000000
  1.3424000453009146    0.0000000000000000    9.1237692914539323
 12 36 108
Direct
  0.5073000000000001    0.0878000000000001    0.0067000000000001 # Al1
  0.5053000000000000    0.4202000000000000    0.0056999999999997 # Al2
  0.4866999999999999    0.7452000000000000    0.9929999999999999 # Al3
  0.0072999999999998    0.5878000000000000    0.5067000000000002 # Al4
  0.0053000000000001    0.9202000000000000    0.5057000000000003 # Al5
  0.9867000000000002    0.2452000000000000    0.4929999999999999 # Al6
  0.5072999999999998    0.9122000000000000    0.5067000000000002 # Al7
  0.5053000000000003    0.5798000000000002    0.5057000000000003 # Al8
  0.4867000000000002    0.2547999999999999    0.4929999999999999 # Al9
  0.0073000000000000    0.4122000000000004    0.0067000000000001 # Al10
  0.0052999999999998    0.0797999999999999    0.0057000000000003 # Al11
  0.9867000000000001    0.7547999999999998    0.9929999999999999 # Al12
  0.6472999999999998    0.0276000000000002    0.7010000000000001 # P1
  0.6310000000000002    0.3646000000000001    0.6889000000000002 # P2
  0.6289000000000005    0.6969000000000000    0.6839999999999998 # P3
  0.8755999999999999    0.0310000000000002    0.3182000000000001 # P4
  0.8573000000000003    0.3634999999999999    0.3106999999999998 # P5
  0.8616999999999998    0.6986000000000001    0.3065000000000002 # P6
  0.7316999999999999    0.1486000000000001    0.4929999999999999 # P7
  0.7688000000000001    0.4848000000000000    0.5120999999999999 # P8
  0.7559999999999999    0.8183000000000001    0.5081000000000000 # P9
  0.1472999999999999    0.5276000000000004    0.2010000000000001 # P10
  0.1310000000000004    0.8645999999999998    0.1889000000000001 # P11
  0.1288999999999999    0.1968999999999998    0.1840000000000005 # P12
  0.3755999999999996    0.5310000000000001    0.8182000000000001 # P13
  0.3572999999999998    0.8634999999999999    0.8107000000000004 # P14
  0.3617000000000000    0.1986000000000001    0.8065000000000002 # P15
  0.2317000000000000    0.6486000000000000    0.9929999999999999 # P16
  0.2688000000000004    0.9847999999999998    0.0121000000000000 # P17
  0.2560000000000002    0.3183000000000004    0.0081000000000000 # P18
  0.6473000000000001    0.9723999999999998    0.2010000000000001 # P19
  0.6309999999999999    0.6354000000000001    0.1889000000000001 # P20
  0.6289000000000000    0.3030999999999999    0.1839999999999999 # P21
  0.8756000000000000    0.9690000000000003    0.8182000000000001 # P22
  0.8573000000000000    0.6365000000000000    0.8107000000000004 # P23
  0.8617000000000000    0.3014000000000006    0.8065000000000002 # P24
  0.7317000000000001    0.8513999999999998    0.9929999999999999 # P25
  0.7688000000000000    0.5152000000000000    0.0121000000000000 # P26
  0.7560000000000002    0.1817000000000000    0.0081000000000000 # P27
  0.1473000000000002    0.4723999999999999    0.7010000000000001 # P28
  0.1310000000000001    0.1354000000000004    0.6889000000000002 # P29
  0.1289000000000003    0.8031000000000000    0.6839999999999998 # P30
  0.3755999999999999    0.4689999999999998    0.3182000000000001 # P31
  0.3573000000000000    0.1365000000000000    0.3107000000000004 # P32
  0.3617000000000002    0.8014000000000001    0.3065000000000002 # P33
  0.2317000000000002    0.3513999999999999    0.4929999999999999 # P34
  0.2688000000000001    0.0152000000000000    0.5120999999999999 # P35
  0.2559999999999999    0.6816999999999998    0.5081000000000000 # P36
  0.0179000000000002    0.2129999999999998    0.2993999999999999 # O1
  0.0500999999999998    0.5353000000000004    0.3341999999999998 # O2
  0.0295000000000002    0.8908000000000001    0.3070999999999999 # O3
  0.2243999999999999    0.1459999999999999    0.2522000000000003 # O4
  0.2883999999999997    0.5224000000000004    0.2448999999999998 # O5
  0.2246000000000001    0.8110000000000002    0.2562000000000002 # O6
  0.0964000000000002    0.1632000000000000    0.0483999999999999 # O7
  0.1262000000000000    0.4695000000000004    0.1000000000000001 # O8
  0.0885000000000003    0.8295000000000000    0.0597000000000003 # O9
  0.1579999999999999    0.0245000000000000    0.9706000000000000 # O10
  0.1365000000000002    0.3430000000000003    0.9521000000000002 # O11
  0.1334000000000000    0.6959000000000001    0.9418000000000004 # O12
  0.3729000000000001    0.0255000000000001    0.0674000000000003 # O13
  0.3474999999999999    0.3714000000000002    0.0537000000000001 # O14
  0.3467000000000000    0.6824000000000000    0.0431000000000002 # O15
  0.3887999999999996    0.1438000000000000    0.9139000000000004 # O16
  0.4131000000000001    0.5003000000000002    0.9546000000000001 # O17
  0.3713999999999998    0.8125999999999999    0.9321000000000002 # O18
  0.4625000000000000    0.2123000000000002    0.6776999999999997 # O19
  0.4857000000000002    0.5524000000000000    0.7033999999999998 # O20
  0.4637000000000002    0.8636999999999999    0.6857000000000002 # O21
  0.2250000000000001    0.0715000000000004    0.6379000000000001 # O22
  0.1584000000000000    0.3985000000000001    0.6194000000000000 # O23
  0.2157000000000002    0.7340000000000001    0.6434000000000002 # O24
  0.3340000000000002    0.0589000000000000    0.3746999999999999 # O25
  0.2756000000000003    0.4054999999999999    0.3627000000000001 # O26
  0.3376000000000005    0.7270000000000000    0.3856999999999999 # O27
  0.5178999999999999    0.7129999999999997    0.7993999999999999 # O28
  0.5501000000000001    0.0352999999999999    0.8342000000000004 # O29
  0.5294999999999999    0.3907999999999999    0.8070999999999999 # O30
  0.7244000000000003    0.6460000000000001    0.7522000000000003 # O31
  0.7884000000000001    0.0224000000000001    0.7448999999999997 # O32
  0.7246000000000000    0.3110000000000003    0.7562000000000002 # O33
  0.5964000000000000    0.6631999999999998    0.5483999999999999 # O34
  0.6261999999999999    0.9695000000000003    0.6000000000000001 # O35
  0.5885000000000000    0.3294999999999998    0.5597000000000002 # O36
  0.6580000000000003    0.5244999999999999    0.4706000000000006 # O37
  0.6365000000000001    0.8430000000000000    0.4521000000000003 # O38
  0.6333999999999997    0.1958999999999999    0.4418000000000002 # O39
  0.8728999999999999    0.5255000000000001    0.5674000000000002 # O40
  0.8474999999999998    0.8714000000000000    0.5537000000000002 # O41
  0.8466999999999996    0.1824000000000000    0.5431000000000002 # O42
  0.8888000000000000    0.6437999999999998    0.4138999999999998 # O43
  0.9131000000000000    0.0002999999999999    0.4546000000000003 # O44
  0.8713999999999995    0.3126000000000000    0.4321000000000001 # O45
  0.9625000000000004    0.7122999999999998    0.1776999999999998 # O46
  0.9857000000000000    0.0524000000000001    0.2033999999999998 # O47
  0.9637000000000001    0.3637000000000006    0.1857000000000003 # O48
  0.7249999999999999    0.5715000000000000    0.1379000000000002 # O49
  0.6584000000000004    0.8985000000000000    0.1194000000000000 # O50
  0.7157000000000000    0.2339999999999999    0.1434000000000002 # O51
  0.8340000000000000    0.5589000000000000    0.8746999999999998 # O52
  0.7756000000000002    0.9055000000000001    0.8627000000000001 # O53
  0.8375999999999997    0.2270000000000001    0.8856999999999998 # O54
  0.0178999999999999    0.7870000000000000    0.7993999999999999 # O55
  0.0501000000000000    0.4647000000000004    0.8342000000000004 # O56
  0.0294999999999999    0.1092000000000003    0.8070999999999999 # O57
  0.2244000000000002    0.8540000000000000    0.7522000000000003 # O58
  0.2883999999999999    0.4776000000000001    0.7448999999999997 # O59
  0.2246000000000000    0.1890000000000003    0.7562000000000002 # O60
  0.0964000000000000    0.8368000000000000    0.5483999999999999 # O61
  0.1262000000000003    0.5305000000000001    0.6000000000000001 # O62
  0.0885000000000001    0.1705000000000001    0.5597000000000002 # O63
  0.1580000000000001    0.9754999999999999    0.4706000000000006 # O64
  0.1365000000000000    0.6569999999999998    0.4521000000000003 # O65
  0.1333999999999998    0.3041000000000001    0.4418000000000002 # O66
  0.3728999999999999    0.9745000000000003    0.5674000000000002 # O67
  0.3475000000000001    0.6285999999999999    0.5537000000000002 # O68
  0.3466999999999998    0.3176000000000000    0.5431000000000002 # O69
  0.3887999999999998    0.8562000000000000    0.4139000000000004 # O70
  0.4130999999999999    0.4996999999999999    0.4546000000000003 # O71
  0.3714000000000001    0.1873999999999999    0.4321000000000001 # O72
  0.4625000000000003    0.7877000000000000    0.1776999999999998 # O73
  0.4857000000000005    0.4475999999999998    0.2033999999999998 # O74
  0.4636999999999999    0.1362999999999999    0.1857000000000003 # O75
  0.2250000000000004    0.9285000000000001    0.1379000000000002 # O76
  0.1583999999999997    0.6015000000000004    0.1194000000000000 # O77
  0.2156999999999999    0.2660000000000004    0.1434000000000002 # O78
  0.3339999999999999    0.9410999999999998    0.8746999999999998 # O79
  0.2756000000000001    0.5945000000000001    0.8627000000000001 # O80
  0.3376000000000002    0.2730000000000004    0.8856999999999998 # O81
  0.5178999999999998    0.2869999999999998    0.2993999999999999 # O82
  0.5501000000000004    0.9647000000000001    0.3341999999999998 # O83
  0.5295000000000002    0.6092000000000000    0.3070999999999999 # O84
  0.7243999999999999    0.3539999999999998    0.2522000000000003 # O85
  0.7884000000000002    0.9775999999999999    0.2448999999999998 # O86
  0.7246000000000002    0.6889999999999998    0.2562000000000002 # O87
  0.5964000000000003    0.3368000000000000    0.0483999999999999 # O88
  0.6262000000000001    0.0305000000000001    0.1000000000000001 # O89
  0.5884999999999999    0.6705000000000000    0.0597000000000003 # O90
  0.6580000000000000    0.4755000000000000    0.9706000000000000 # O91
  0.6364999999999998    0.1569999999999999    0.9521000000000002 # O92
  0.6334000000000002    0.8041000000000000    0.9418000000000004 # O93
  0.8729000000000001    0.4745000000000004    0.0674000000000003 # O94
  0.8475000000000000    0.1286000000000000    0.0537000000000001 # O95
  0.8467000000000006    0.8175999999999999    0.0431000000000002 # O96
  0.8888000000000004    0.3562000000000005    0.9139000000000004 # O97
  0.9131000000000001    0.9997000000000001    0.9546000000000001 # O98
  0.8713999999999998    0.6874000000000001    0.9321000000000002 # O99
  0.9625000000000000    0.2877000000000003    0.6776999999999997 # O100
  0.9857000000000001    0.9476000000000004    0.7033999999999998 # O101
  0.9636999999999996    0.6362999999999999    0.6857000000000002 # O102
  0.7250000000000002    0.4285000000000001    0.6379000000000001 # O103
  0.6584000000000001    0.1015000000000001    0.6194000000000000 # O104
  0.7157000000000002    0.7660000000000001    0.6434000000000002 # O105
  0.8340000000000002    0.4411000000000000    0.3746999999999999 # O106
  0.7755999999999998    0.0945000000000001    0.3627000000000001 # O107
  0.8376000000000001    0.7730000000000000    0.3856999999999999 # O108
