$cell vectors
1.0
 11.1929947332259569    0.0000000000000000    0.0000000000000000
  0.0000000000000000    9.9939952974055384    0.0000000000000000
 -0.3494222389301833    0.0000000000000000    7.1444569386362717
 16 16
Direct
  0.5000000000000001    0.1499999999999998    0.1950000000000002 # As1
  0.3200000000000000    0.3509999999999998    0.5040000000000004 # As2
  0.2599999999999998    0.3770000000000003    0.0400000000000002 # As3
  0.4170000000000000    0.4889999999999999    0.2579999999999998 # As4
  0.4999999999999997    0.8500000000000003    0.8049999999999999 # As5
  0.6799999999999996    0.6490000000000002    0.4960000000000004 # As6
  0.7399999999999997    0.6230000000000003    0.9600000000000005 # As7
  0.5830000000000000    0.5110000000000002    0.7420000000000002 # As8
  0.0000000000000000    0.6499999999999999    0.3050000000000002 # As9
  0.1799999999999998    0.8509999999999999   -0.0040000000000000 # As10
  0.2399999999999999    0.8770000000000003    0.4600000000000002 # As11
  0.0830000000000002    0.9890000000000000    0.2419999999999998 # As12
  0.9999999999999999    0.3500000000000003    0.6950000000000006 # As13
  0.8199999999999996    0.1490000000000002    1.0040000000000000 # As14
  0.7599999999999997    0.1229999999999998    0.5400000000000005 # As15
  0.9169999999999999    0.0110000000000002    0.7580000000000002 # As16
  0.4149999999999997    0.1570000000000001    0.4750000000000005 # S1
  0.1589999999999998    0.3350000000000001    0.3020000000000001 # S2
  0.3489999999999999    0.1819999999999999   -0.0160000000000001 # S3
  0.5720000000000002    0.3609999999999999    0.2030000000000002 # S4
  0.5849999999999999    0.8430000000000001    0.5250000000000002 # S5
  0.8409999999999997    0.6650000000000000    0.6980000000000000 # S6
  0.6509999999999997    0.8180000000000002    1.0160000000000000 # S7
  0.4279999999999999    0.6390000000000001    0.7970000000000000 # S8
  0.0850000000000000    0.6570000000000001    0.0249999999999999 # S9
  0.3410000000000000    0.8350000000000001    0.1980000000000004 # S10
  0.1509999999999999    0.6819999999999999    0.5160000000000005 # S11
 -0.0719999999999999    0.8610000000000002    0.2970000000000002 # S12
  0.9149999999999999    0.3430000000000000    0.9750000000000001 # S13
  0.6590000000000000    0.1650000000000000    0.8020000000000004 # S14
  0.8489999999999996    0.3180000000000002    0.4840000000000003 # S15
  1.0719999999999998    0.1390000000000001    0.7030000000000006 # S16
