$cell vectors
1.0
  5.0699976143532197    0.0000000000000000    0.0000000000000000
  0.0000000000000000   13.8299934924073078    0.0000000000000000
 -2.8578078360973653    0.0000000000000000    5.7823347551418776
 2 4 20
Direct
  0.0000000000000000    0.0000000000000000    0.0000000000000000 # Ge1
  0.0000000000000001    0.4999999999999997    0.5000000000000000 # Ge2
  0.3141999999999998    0.1356999999999999    0.6651999999999997 # Br1
  0.6858000000000003    0.8643000000000000    0.3348000000000002 # Br2
  0.6858000000000004    0.6356999999999995    0.8348000000000003 # Br3
  0.3141999999999998    0.3642999999999998    0.1651999999999998 # Br4
  0.0122999999999998    0.0350000000000001   -0.2670999999999996 # F1
 -0.2713000000000004    0.0952999999999999   -0.0510000000000000 # F2
  0.2692000000000004    0.0838999999999999    0.1547000000000002 # F3
  0.5301000000000001    0.2143000000000001    0.5952999999999997 # F4
  0.0077000000000004    0.1782000000000000    0.4434000000000000 # F5
 -0.0122999999999993   -0.0350000000000001    0.2671000000000004 # F6
  0.2713000000000004   -0.0952999999999999    0.0510000000000000 # F7
 -0.2692000000000004   -0.0838999999999999   -0.1547000000000002 # F8
  0.4699000000000000    0.7856999999999997    0.4047000000000002 # F9
  0.9923000000000006    0.8217999999999999    0.5565999999999999 # F10
 -0.0122999999999997    0.5350000000000003    0.7670999999999996 # F11
  0.2713000000000004    0.5953000000000001    0.5509999999999999 # F12
 -0.2692000000000004    0.5839000000000001    0.3452999999999998 # F13
  0.4698999999999994    0.7142999999999998    0.9046999999999992 # F14
  0.9923000000000008    0.6781999999999998    1.0566000000000000 # F15
  0.0123000000000004    0.4650000000000001    0.2328999999999996 # F16
 -0.2712999999999993    0.4046999999999999    0.4490000000000000 # F17
  0.2692000000000004    0.4160999999999998    0.6547000000000002 # F18
  0.5301000000000001    0.2857000000000001    0.0952999999999998 # F19
  0.0077000000000003    0.3218000000000001   -0.0565999999999999 # F20
