$cell vectors
1.0
  9.3991955772837876    0.0000000000000000    0.0000000000000000
  0.0000000000000000    3.2087984901255653    0.0000000000000000
 -2.1919524756195758    0.0000000000000000    6.1584385797973074
 8 5
Direct
  0.0000000000000000    0.0000000000000000    0.0000000000000000 # Mo1
  0.7805999999999996    0.0000000000000000    0.2389999999999996 # Mo2
  0.2468000000000000    0.0000000000000000    0.7931000000000002 # Mo3
  0.3060999999999997    0.0000000000000000    0.3569000000000003 # Mo4
  0.5705999999999998    0.0000000000000000    0.7939000000000001 # Mo5
  0.0529000000000002    0.5000000000000008    0.3937000000000003 # Mo6
  0.7805000000000000    0.5000000000000008    0.6113000000000000 # Mo7
  0.4976999999999995    0.4999999999999992    0.1232000000000000 # Mo8
  0.5831000000000000    0.0000000000000000    0.4300999999999999 # P1
  0.9855999999999998    0.0000000000000000    0.6235999999999996 # P2
  0.2090000000000003    0.4999999999999992    0.0659000000000003 # P3
  0.3715999999999997    0.5000000000000008    0.6552999999999999 # P4
  0.7857999999999997    0.5000000000000008    0.9812999999999997 # P5
