Li8Mn4O12 (C2/m)                        
   1.00000000000000     
     5.0173486696776521    0.0000000000000000   -0.0000856455606025
     0.0000000000000000    8.6736545281190569    0.0000000000000000
    -1.7014607643680149    0.0000000000000000    4.8030263272331233
   8   4  12
Direct
  0.0000000000000000  0.5000000000000000  0.0000000000000000
  0.5000000000000000  0.0000000000000000  0.0000000000000000
  0.0000000000000000  0.0000000000000000  0.5000000000000000
  0.5000000000000000  0.5000000000000000  0.5000000000000000
  0.0000000000000000  0.3387210338918649  0.5000000000000000
  0.5000000000000000  0.8387210338918720  0.5000000000000000
  0.0000000000000000  0.6612789661081280  0.5000000000000000
  0.5000000000000000  0.1612789661081351  0.5000000000000000
  0.0000000000000000  0.1670668653205922  0.0000000000000000
  0.5000000000000000  0.6670668653205993  0.0000000000000000
  0.0000000000000000  0.8329331346794007  0.0000000000000000
  0.5000000000000000  0.3329331346794078  0.0000000000000000
  0.2192816854432920  0.0000000000000000  0.2280398629977327
  0.7192816854432920  0.5000000000000000  0.2280398629977327
  0.7807183145567080  0.0000000000000000  0.7719601370022673
  0.2807183145567080  0.5000000000000000  0.7719601370022673
  0.2542765099624731  0.3213554511815957  0.2241529848260981
  0.7542765099624731  0.8213554511815957  0.2241529848260981
  0.7457234900375269  0.3213554511815957  0.7758470151739019
  0.2457234900375269  0.8213554511815957  0.7758470151739019
  0.7457234900375269  0.6786445488184043  0.7758470151739019
  0.2457234900375269  0.1786445488184114  0.7758470151739019
  0.2542765099624731  0.6786445488184043  0.2241529848260981
  0.7542765099624731  0.1786445488184114  0.2241529848260981
 
  0.00000000E+00  0.00000000E+00  0.00000000E+00
  0.00000000E+00  0.00000000E+00  0.00000000E+00
  0.00000000E+00  0.00000000E+00  0.00000000E+00
  0.00000000E+00  0.00000000E+00  0.00000000E+00
  0.00000000E+00  0.00000000E+00  0.00000000E+00
  0.00000000E+00  0.00000000E+00  0.00000000E+00
  0.00000000E+00  0.00000000E+00  0.00000000E+00
  0.00000000E+00  0.00000000E+00  0.00000000E+00
  0.00000000E+00  0.00000000E+00  0.00000000E+00
  0.00000000E+00  0.00000000E+00  0.00000000E+00
  0.00000000E+00  0.00000000E+00  0.00000000E+00
  0.00000000E+00  0.00000000E+00  0.00000000E+00
  0.00000000E+00  0.00000000E+00  0.00000000E+00
  0.00000000E+00  0.00000000E+00  0.00000000E+00
  0.00000000E+00  0.00000000E+00  0.00000000E+00
  0.00000000E+00  0.00000000E+00  0.00000000E+00
  0.00000000E+00  0.00000000E+00  0.00000000E+00
  0.00000000E+00  0.00000000E+00  0.00000000E+00
  0.00000000E+00  0.00000000E+00  0.00000000E+00
  0.00000000E+00  0.00000000E+00  0.00000000E+00
  0.00000000E+00  0.00000000E+00  0.00000000E+00
  0.00000000E+00  0.00000000E+00  0.00000000E+00
  0.00000000E+00  0.00000000E+00  0.00000000E+00
  0.00000000E+00  0.00000000E+00  0.00000000E+00
