Ga1 As1
   1.00000000000000
     0.0000000000000000    2.8750909999999998    2.8750909999999998
     2.8750909999999998    0.0000000000000000    2.8750909999999998
     2.8750909999999998    2.8750909999999998    0.0000000000000000
   Ga   As
     1     1
Direct
  0.0000000000000000  0.0000000000000000  0.0000000000000000
  0.7500000000000000  0.7500000000000000  0.7500000000000000

  0.00000000E+00  0.00000000E+00  0.00000000E+00
  0.00000000E+00  0.00000000E+00  0.00000000E+00
