\Gamma -> X -> W -> K -> \Gamma -> L -> U -> W -> L -> K -> U -> X
941
Reciprocal lattice
0.0 0.0 0.0 1
0.125 0.0 0.0 1
0.25 0.0 0.0 1
0.375 0.0 0.0 1
0.5 0.0 0.0 1
-0.375 0.0 0.0 1
-0.25 0.0 0.0 1
-0.125 0.0 0.0 1
0.0 0.125 0.0 1
0.125 0.125 0.0 1
0.25 0.125 0.0 1
0.375 0.125 0.0 1
0.5 0.125 0.0 1
-0.375 0.125 0.0 1
-0.25 0.125 0.0 1
-0.125 0.125 0.0 1
0.0 0.25 0.0 1
0.125 0.25 0.0 1
0.25 0.25 0.0 1
0.375 0.25 0.0 1
0.5 0.25 0.0 1
-0.375 0.25 0.0 1
-0.25 0.25 0.0 1
-0.125 0.25 0.0 1
0.0 0.375 0.0 1
0.125 0.375 0.0 1
0.25 0.375 0.0 1
0.375 0.375 0.0 1
0.5 0.375 0.0 1
-0.375 0.375 0.0 1
-0.25 0.375 0.0 1
-0.125 0.375 0.0 1
0.0 0.5 0.0 1
0.125 0.5 0.0 1
0.25 0.5 0.0 1
0.375 0.5 0.0 1
0.5 0.5 0.0 1
-0.375 0.5 0.0 1
-0.25 0.5 0.0 1
-0.125 0.5 0.0 1
0.0 -0.375 0.0 1
0.125 -0.375 0.0 1
0.25 -0.375 0.0 1
0.375 -0.375 0.0 1
0.5 -0.375 0.0 1
-0.375 -0.375 0.0 1
-0.25 -0.375 0.0 1
-0.125 -0.375 0.0 1
0.0 -0.25 0.0 1
0.125 -0.25 0.0 1
0.25 -0.25 0.0 1
0.375 -0.25 0.0 1
0.5 -0.25 0.0 1
-0.375 -0.25 0.0 1
-0.25 -0.25 0.0 1
-0.125 -0.25 0.0 1
0.0 -0.125 0.0 1
0.125 -0.125 0.0 1
0.25 -0.125 0.0 1
0.375 -0.125 0.0 1
0.5 -0.125 0.0 1
-0.375 -0.125 0.0 1
-0.25 -0.125 0.0 1
-0.125 -0.125 0.0 1
0.0 0.0 0.125 1
0.125 0.0 0.125 1
0.25 0.0 0.125 1
0.375 0.0 0.125 1
0.5 0.0 0.125 1
-0.375 0.0 0.125 1
-0.25 0.0 0.125 1
-0.125 0.0 0.125 1
0.0 0.125 0.125 1
0.125 0.125 0.125 1
0.25 0.125 0.125 1
0.375 0.125 0.125 1
0.5 0.125 0.125 1
-0.375 0.125 0.125 1
-0.25 0.125 0.125 1
-0.125 0.125 0.125 1
0.0 0.25 0.125 1
0.125 0.25 0.125 1
0.25 0.25 0.125 1
0.375 0.25 0.125 1
0.5 0.25 0.125 1
-0.375 0.25 0.125 1
-0.25 0.25 0.125 1
-0.125 0.25 0.125 1
0.0 0.375 0.125 1
0.125 0.375 0.125 1
0.25 0.375 0.125 1
0.375 0.375 0.125 1
0.5 0.375 0.125 1
-0.375 0.375 0.125 1
-0.25 0.375 0.125 1
-0.125 0.375 0.125 1
0.0 0.5 0.125 1
0.125 0.5 0.125 1
0.25 0.5 0.125 1
0.375 0.5 0.125 1
0.5 0.5 0.125 1
-0.375 0.5 0.125 1
-0.25 0.5 0.125 1
-0.125 0.5 0.125 1
0.0 -0.375 0.125 1
0.125 -0.375 0.125 1
0.25 -0.375 0.125 1
0.375 -0.375 0.125 1
0.5 -0.375 0.125 1
-0.375 -0.375 0.125 1
-0.25 -0.375 0.125 1
-0.125 -0.375 0.125 1
0.0 -0.25 0.125 1
0.125 -0.25 0.125 1
0.25 -0.25 0.125 1
0.375 -0.25 0.125 1
0.5 -0.25 0.125 1
-0.375 -0.25 0.125 1
-0.25 -0.25 0.125 1
-0.125 -0.25 0.125 1
0.0 -0.125 0.125 1
0.125 -0.125 0.125 1
0.25 -0.125 0.125 1
0.375 -0.125 0.125 1
0.5 -0.125 0.125 1
-0.375 -0.125 0.125 1
-0.25 -0.125 0.125 1
-0.125 -0.125 0.125 1
0.0 0.0 0.25 1
0.125 0.0 0.25 1
0.25 0.0 0.25 1
0.375 0.0 0.25 1
0.5 0.0 0.25 1
-0.375 0.0 0.25 1
-0.25 0.0 0.25 1
-0.125 0.0 0.25 1
0.0 0.125 0.25 1
0.125 0.125 0.25 1
0.25 0.125 0.25 1
0.375 0.125 0.25 1
0.5 0.125 0.25 1
-0.375 0.125 0.25 1
-0.25 0.125 0.25 1
-0.125 0.125 0.25 1
0.0 0.25 0.25 1
0.125 0.25 0.25 1
0.25 0.25 0.25 1
0.375 0.25 0.25 1
0.5 0.25 0.25 1
-0.375 0.25 0.25 1
-0.25 0.25 0.25 1
-0.125 0.25 0.25 1
0.0 0.375 0.25 1
0.125 0.375 0.25 1
0.25 0.375 0.25 1
0.375 0.375 0.25 1
0.5 0.375 0.25 1
-0.375 0.375 0.25 1
-0.25 0.375 0.25 1
-0.125 0.375 0.25 1
0.0 0.5 0.25 1
0.125 0.5 0.25 1
0.25 0.5 0.25 1
0.375 0.5 0.25 1
0.5 0.5 0.25 1
-0.375 0.5 0.25 1
-0.25 0.5 0.25 1
-0.125 0.5 0.25 1
0.0 -0.375 0.25 1
0.125 -0.375 0.25 1
0.25 -0.375 0.25 1
0.375 -0.375 0.25 1
0.5 -0.375 0.25 1
-0.375 -0.375 0.25 1
-0.25 -0.375 0.25 1
-0.125 -0.375 0.25 1
0.0 -0.25 0.25 1
0.125 -0.25 0.25 1
0.25 -0.25 0.25 1
0.375 -0.25 0.25 1
0.5 -0.25 0.25 1
-0.375 -0.25 0.25 1
-0.25 -0.25 0.25 1
-0.125 -0.25 0.25 1
0.0 -0.125 0.25 1
0.125 -0.125 0.25 1
0.25 -0.125 0.25 1
0.375 -0.125 0.25 1
0.5 -0.125 0.25 1
-0.375 -0.125 0.25 1
-0.25 -0.125 0.25 1
-0.125 -0.125 0.25 1
0.0 0.0 0.375 1
0.125 0.0 0.375 1
0.25 0.0 0.375 1
0.375 0.0 0.375 1
0.5 0.0 0.375 1
-0.375 0.0 0.375 1
-0.25 0.0 0.375 1
-0.125 0.0 0.375 1
0.0 0.125 0.375 1
0.125 0.125 0.375 1
0.25 0.125 0.375 1
0.375 0.125 0.375 1
0.5 0.125 0.375 1
-0.375 0.125 0.375 1
-0.25 0.125 0.375 1
-0.125 0.125 0.375 1
0.0 0.25 0.375 1
0.125 0.25 0.375 1
0.25 0.25 0.375 1
0.375 0.25 0.375 1
0.5 0.25 0.375 1
-0.375 0.25 0.375 1
-0.25 0.25 0.375 1
-0.125 0.25 0.375 1
0.0 0.375 0.375 1
0.125 0.375 0.375 1
0.25 0.375 0.375 1
0.375 0.375 0.375 1
0.5 0.375 0.375 1
-0.375 0.375 0.375 1
-0.25 0.375 0.375 1
-0.125 0.375 0.375 1
0.0 0.5 0.375 1
0.125 0.5 0.375 1
0.25 0.5 0.375 1
0.375 0.5 0.375 1
0.5 0.5 0.375 1
-0.375 0.5 0.375 1
-0.25 0.5 0.375 1
-0.125 0.5 0.375 1
0.0 -0.375 0.375 1
0.125 -0.375 0.375 1
0.25 -0.375 0.375 1
0.375 -0.375 0.375 1
0.5 -0.375 0.375 1
-0.375 -0.375 0.375 1
-0.25 -0.375 0.375 1
-0.125 -0.375 0.375 1
0.0 -0.25 0.375 1
0.125 -0.25 0.375 1
0.25 -0.25 0.375 1
0.375 -0.25 0.375 1
0.5 -0.25 0.375 1
-0.375 -0.25 0.375 1
-0.25 -0.25 0.375 1
-0.125 -0.25 0.375 1
0.0 -0.125 0.375 1
0.125 -0.125 0.375 1
0.25 -0.125 0.375 1
0.375 -0.125 0.375 1
0.5 -0.125 0.375 1
-0.375 -0.125 0.375 1
-0.25 -0.125 0.375 1
-0.125 -0.125 0.375 1
0.0 0.0 0.5 1
0.125 0.0 0.5 1
0.25 0.0 0.5 1
0.375 0.0 0.5 1
0.5 0.0 0.5 1
-0.375 0.0 0.5 1
-0.25 0.0 0.5 1
-0.125 0.0 0.5 1
0.0 0.125 0.5 1
0.125 0.125 0.5 1
0.25 0.125 0.5 1
0.375 0.125 0.5 1
0.5 0.125 0.5 1
-0.375 0.125 0.5 1
-0.25 0.125 0.5 1
-0.125 0.125 0.5 1
0.0 0.25 0.5 1
0.125 0.25 0.5 1
0.25 0.25 0.5 1
0.375 0.25 0.5 1
0.5 0.25 0.5 1
-0.375 0.25 0.5 1
-0.25 0.25 0.5 1
-0.125 0.25 0.5 1
0.0 0.375 0.5 1
0.125 0.375 0.5 1
0.25 0.375 0.5 1
0.375 0.375 0.5 1
0.5 0.375 0.5 1
-0.375 0.375 0.5 1
-0.25 0.375 0.5 1
-0.125 0.375 0.5 1
0.0 0.5 0.5 1
0.125 0.5 0.5 1
0.25 0.5 0.5 1
0.375 0.5 0.5 1
0.5 0.5 0.5 1
-0.375 0.5 0.5 1
-0.25 0.5 0.5 1
-0.125 0.5 0.5 1
0.0 -0.375 0.5 1
0.125 -0.375 0.5 1
0.25 -0.375 0.5 1
0.375 -0.375 0.5 1
0.5 -0.375 0.5 1
-0.375 -0.375 0.5 1
-0.25 -0.375 0.5 1
-0.125 -0.375 0.5 1
0.0 -0.25 0.5 1
0.125 -0.25 0.5 1
0.25 -0.25 0.5 1
0.375 -0.25 0.5 1
0.5 -0.25 0.5 1
-0.375 -0.25 0.5 1
-0.25 -0.25 0.5 1
-0.125 -0.25 0.5 1
0.0 -0.125 0.5 1
0.125 -0.125 0.5 1
0.25 -0.125 0.5 1
0.375 -0.125 0.5 1
0.5 -0.125 0.5 1
-0.375 -0.125 0.5 1
-0.25 -0.125 0.5 1
-0.125 -0.125 0.5 1
0.0 0.0 -0.375 1
0.125 0.0 -0.375 1
0.25 0.0 -0.375 1
0.375 0.0 -0.375 1
0.5 0.0 -0.375 1
-0.375 0.0 -0.375 1
-0.25 0.0 -0.375 1
-0.125 0.0 -0.375 1
0.0 0.125 -0.375 1
0.125 0.125 -0.375 1
0.25 0.125 -0.375 1
0.375 0.125 -0.375 1
0.5 0.125 -0.375 1
-0.375 0.125 -0.375 1
-0.25 0.125 -0.375 1
-0.125 0.125 -0.375 1
0.0 0.25 -0.375 1
0.125 0.25 -0.375 1
0.25 0.25 -0.375 1
0.375 0.25 -0.375 1
0.5 0.25 -0.375 1
-0.375 0.25 -0.375 1
-0.25 0.25 -0.375 1
-0.125 0.25 -0.375 1
0.0 0.375 -0.375 1
0.125 0.375 -0.375 1
0.25 0.375 -0.375 1
0.375 0.375 -0.375 1
0.5 0.375 -0.375 1
-0.375 0.375 -0.375 1
-0.25 0.375 -0.375 1
-0.125 0.375 -0.375 1
0.0 0.5 -0.375 1
0.125 0.5 -0.375 1
0.25 0.5 -0.375 1
0.375 0.5 -0.375 1
0.5 0.5 -0.375 1
-0.375 0.5 -0.375 1
-0.25 0.5 -0.375 1
-0.125 0.5 -0.375 1
0.0 -0.375 -0.375 1
0.125 -0.375 -0.375 1
0.25 -0.375 -0.375 1
0.375 -0.375 -0.375 1
0.5 -0.375 -0.375 1
-0.375 -0.375 -0.375 1
-0.25 -0.375 -0.375 1
-0.125 -0.375 -0.375 1
0.0 -0.25 -0.375 1
0.125 -0.25 -0.375 1
0.25 -0.25 -0.375 1
0.375 -0.25 -0.375 1
0.5 -0.25 -0.375 1
-0.375 -0.25 -0.375 1
-0.25 -0.25 -0.375 1
-0.125 -0.25 -0.375 1
0.0 -0.125 -0.375 1
0.125 -0.125 -0.375 1
0.25 -0.125 -0.375 1
0.375 -0.125 -0.375 1
0.5 -0.125 -0.375 1
-0.375 -0.125 -0.375 1
-0.25 -0.125 -0.375 1
-0.125 -0.125 -0.375 1
0.0 0.0 -0.25 1
0.125 0.0 -0.25 1
0.25 0.0 -0.25 1
0.375 0.0 -0.25 1
0.5 0.0 -0.25 1
-0.375 0.0 -0.25 1
-0.25 0.0 -0.25 1
-0.125 0.0 -0.25 1
0.0 0.125 -0.25 1
0.125 0.125 -0.25 1
0.25 0.125 -0.25 1
0.375 0.125 -0.25 1
0.5 0.125 -0.25 1
-0.375 0.125 -0.25 1
-0.25 0.125 -0.25 1
-0.125 0.125 -0.25 1
0.0 0.25 -0.25 1
0.125 0.25 -0.25 1
0.25 0.25 -0.25 1
0.375 0.25 -0.25 1
0.5 0.25 -0.25 1
-0.375 0.25 -0.25 1
-0.25 0.25 -0.25 1
-0.125 0.25 -0.25 1
0.0 0.375 -0.25 1
0.125 0.375 -0.25 1
0.25 0.375 -0.25 1
0.375 0.375 -0.25 1
0.5 0.375 -0.25 1
-0.375 0.375 -0.25 1
-0.25 0.375 -0.25 1
-0.125 0.375 -0.25 1
0.0 0.5 -0.25 1
0.125 0.5 -0.25 1
0.25 0.5 -0.25 1
0.375 0.5 -0.25 1
0.5 0.5 -0.25 1
-0.375 0.5 -0.25 1
-0.25 0.5 -0.25 1
-0.125 0.5 -0.25 1
0.0 -0.375 -0.25 1
0.125 -0.375 -0.25 1
0.25 -0.375 -0.25 1
0.375 -0.375 -0.25 1
0.5 -0.375 -0.25 1
-0.375 -0.375 -0.25 1
-0.25 -0.375 -0.25 1
-0.125 -0.375 -0.25 1
0.0 -0.25 -0.25 1
0.125 -0.25 -0.25 1
0.25 -0.25 -0.25 1
0.375 -0.25 -0.25 1
0.5 -0.25 -0.25 1
-0.375 -0.25 -0.25 1
-0.25 -0.25 -0.25 1
-0.125 -0.25 -0.25 1
0.0 -0.125 -0.25 1
0.125 -0.125 -0.25 1
0.25 -0.125 -0.25 1
0.375 -0.125 -0.25 1
0.5 -0.125 -0.25 1
-0.375 -0.125 -0.25 1
-0.25 -0.125 -0.25 1
-0.125 -0.125 -0.25 1
0.0 0.0 -0.125 1
0.125 0.0 -0.125 1
0.25 0.0 -0.125 1
0.375 0.0 -0.125 1
0.5 0.0 -0.125 1
-0.375 0.0 -0.125 1
-0.25 0.0 -0.125 1
-0.125 0.0 -0.125 1
0.0 0.125 -0.125 1
0.125 0.125 -0.125 1
0.25 0.125 -0.125 1
0.375 0.125 -0.125 1
0.5 0.125 -0.125 1
-0.375 0.125 -0.125 1
-0.25 0.125 -0.125 1
-0.125 0.125 -0.125 1
0.0 0.25 -0.125 1
0.125 0.25 -0.125 1
0.25 0.25 -0.125 1
0.375 0.25 -0.125 1
0.5 0.25 -0.125 1
-0.375 0.25 -0.125 1
-0.25 0.25 -0.125 1
-0.125 0.25 -0.125 1
0.0 0.375 -0.125 1
0.125 0.375 -0.125 1
0.25 0.375 -0.125 1
0.375 0.375 -0.125 1
0.5 0.375 -0.125 1
-0.375 0.375 -0.125 1
-0.25 0.375 -0.125 1
-0.125 0.375 -0.125 1
0.0 0.5 -0.125 1
0.125 0.5 -0.125 1
0.25 0.5 -0.125 1
0.375 0.5 -0.125 1
0.5 0.5 -0.125 1
-0.375 0.5 -0.125 1
-0.25 0.5 -0.125 1
-0.125 0.5 -0.125 1
0.0 -0.375 -0.125 1
0.125 -0.375 -0.125 1
0.25 -0.375 -0.125 1
0.375 -0.375 -0.125 1
0.5 -0.375 -0.125 1
-0.375 -0.375 -0.125 1
-0.25 -0.375 -0.125 1
-0.125 -0.375 -0.125 1
0.0 -0.25 -0.125 1
0.125 -0.25 -0.125 1
0.25 -0.25 -0.125 1
0.375 -0.25 -0.125 1
0.5 -0.25 -0.125 1
-0.375 -0.25 -0.125 1
-0.25 -0.25 -0.125 1
-0.125 -0.25 -0.125 1
0.0 -0.125 -0.125 1
0.125 -0.125 -0.125 1
0.25 -0.125 -0.125 1
0.375 -0.125 -0.125 1
0.5 -0.125 -0.125 1
-0.375 -0.125 -0.125 1
-0.25 -0.125 -0.125 1
-0.125 -0.125 -0.125 1
0.0 0.0 0.0 0 \Gamma
0.007575757575757577 0.0 0.007575757575757577 0
0.015151515151515154 0.0 0.015151515151515154 0
0.022727272727272728 0.0 0.022727272727272728 0
0.030303030303030307 0.0 0.030303030303030307 0
0.03787878787878788 0.0 0.03787878787878788 0
0.045454545454545456 0.0 0.045454545454545456 0
0.05303030303030303 0.0 0.05303030303030303 0
0.060606060606060615 0.0 0.060606060606060615 0
0.06818181818181818 0.0 0.06818181818181818 0
0.07575757575757576 0.0 0.07575757575757576 0
0.08333333333333333 0.0 0.08333333333333333 0
0.09090909090909091 0.0 0.09090909090909091 0
0.0984848484848485 0.0 0.0984848484848485 0
0.10606060606060606 0.0 0.10606060606060606 0
0.11363636363636363 0.0 0.11363636363636363 0
0.12121212121212123 0.0 0.12121212121212123 0
0.12878787878787878 0.0 0.12878787878787878 0
0.13636363636363635 0.0 0.13636363636363635 0
0.14393939393939395 0.0 0.14393939393939395 0
0.15151515151515152 0.0 0.15151515151515152 0
0.1590909090909091 0.0 0.1590909090909091 0
0.16666666666666666 0.0 0.16666666666666666 0
0.17424242424242425 0.0 0.17424242424242425 0
0.18181818181818182 0.0 0.18181818181818182 0
0.18939393939393942 0.0 0.18939393939393942 0
0.196969696969697 0.0 0.196969696969697 0
0.20454545454545459 0.0 0.20454545454545459 0
0.21212121212121213 0.0 0.21212121212121213 0
0.2196969696969697 0.0 0.2196969696969697 0
0.22727272727272727 0.0 0.22727272727272727 0
0.23484848484848486 0.0 0.23484848484848486 0
0.24242424242424246 0.0 0.24242424242424246 0
0.25 0.0 0.25 0
0.25757575757575757 0.0 0.25757575757575757 0
0.26515151515151514 0.0 0.26515151515151514 0
0.2727272727272727 0.0 0.2727272727272727 0
0.2803030303030303 0.0 0.2803030303030303 0
0.2878787878787879 0.0 0.2878787878787879 0
0.29545454545454547 0.0 0.29545454545454547 0
0.30303030303030304 0.0 0.30303030303030304 0
0.31060606060606066 0.0 0.31060606060606066 0
0.3181818181818182 0.0 0.3181818181818182 0
0.3257575757575758 0.0 0.3257575757575758 0
0.3333333333333333 0.0 0.3333333333333333 0
0.3409090909090909 0.0 0.3409090909090909 0
0.3484848484848485 0.0 0.3484848484848485 0
0.3560606060606061 0.0 0.3560606060606061 0
0.36363636363636365 0.0 0.36363636363636365 0
0.3712121212121212 0.0 0.3712121212121212 0
0.37878787878787884 0.0 0.37878787878787884 0
0.38636363636363635 0.0 0.38636363636363635 0
0.393939393939394 0.0 0.393939393939394 0
0.4015151515151515 0.0 0.4015151515151515 0
0.40909090909090917 0.0 0.40909090909090917 0
0.4166666666666667 0.0 0.4166666666666667 0
0.42424242424242425 0.0 0.42424242424242425 0
0.4318181818181818 0.0 0.4318181818181818 0
0.4393939393939394 0.0 0.4393939393939394 0
0.44696969696969696 0.0 0.44696969696969696 0
0.45454545454545453 0.0 0.45454545454545453 0
0.4621212121212121 0.0 0.4621212121212121 0
0.4696969696969697 0.0 0.4696969696969697 0
0.4772727272727273 0.0 0.4772727272727273 0
0.4848484848484849 0.0 0.4848484848484849 0
0.4924242424242425 0.0 0.4924242424242425 0
0.5 0.0 0.5 0 X
0.5 0.007575757575757576 0.5075757575757576 0
0.5 0.015151515151515152 0.5151515151515151 0
0.5 0.022727272727272728 0.5227272727272727 0
0.5 0.030303030303030304 0.5303030303030303 0
0.5 0.03787878787878788 0.5378787878787878 0
0.5 0.045454545454545456 0.5454545454545454 0
0.5 0.05303030303030303 0.553030303030303 0
0.5 0.06060606060606061 0.5606060606060606 0
0.5 0.06818181818181816 0.5681818181818181 0
0.5 0.07575757575757576 0.5757575757575757 0
0.5 0.08333333333333333 0.5833333333333333 0
0.5 0.09090909090909091 0.5909090909090909 0
0.5 0.09848484848484848 0.5984848484848485 0
0.5 0.10606060606060606 0.6060606060606061 0
0.5 0.11363636363636362 0.6136363636363636 0
0.5 0.12121212121212122 0.6212121212121212 0
0.5 0.12878787878787876 0.6287878787878788 0
0.5 0.13636363636363633 0.6363636363636364 0
0.5 0.14393939393939395 0.6439393939393939 0
0.5 0.15151515151515152 0.6515151515151515 0
0.5 0.1590909090909091 0.6590909090909091 0
0.5 0.16666666666666666 0.6666666666666666 0
0.5 0.17424242424242425 0.6742424242424242 0
0.5 0.18181818181818182 0.6818181818181818 0
0.5 0.1893939393939394 0.6893939393939393 0
0.5 0.19696969696969696 0.6969696969696969 0
0.5 0.20454545454545456 0.7045454545454546 0
0.5 0.21212121212121213 0.7121212121212122 0
0.5 0.2196969696969697 0.7196969696969697 0
0.5 0.22727272727272724 0.7272727272727272 0
0.5 0.23484848484848483 0.7348484848484849 0
0.5 0.24242424242424243 0.7424242424242424 0
0.5 0.25 0.75 0 W
0.49479166666666674 0.2552083333333333 0.75 0
0.4895833333333333 0.26041666666666663 0.75 0
0.48437500000000006 0.265625 0.75 0
0.4791666666666667 0.2708333333333333 0.75 0
0.47395833333333337 0.27604166666666663 0.75 0
0.46875 0.28125 0.75 0
0.4635416666666667 0.28645833333333326 0.75 0
0.4583333333333333 0.29166666666666663 0.75 0
0.453125 0.29687499999999994 0.75 0
0.4479166666666667 0.3020833333333333 0.75 0
0.44270833333333337 0.30729166666666663 0.75 0
0.4375 0.3125 0.75 0
0.4322916666666667 0.3177083333333333 0.75 0
0.4270833333333333 0.32291666666666663 0.75 0
0.421875 0.328125 0.75 0
0.4166666666666667 0.33333333333333326 0.75 0
0.4114583333333333 0.3385416666666667 0.75 0
0.40625 0.34374999999999994 0.75 0
0.4010416666666667 0.3489583333333333 0.75 0
0.39583333333333337 0.35416666666666663 0.75 0
0.390625 0.359375 0.75 0
0.3854166666666667 0.3645833333333333 0.75 0
0.3802083333333333 0.36979166666666663 0.75 0
0.375 0.375 0.75 0 K
0.36964285714285716 0.36964285714285716 0.7392857142857143 0
0.36428571428571427 0.36428571428571427 0.7285714285714285 0
0.35892857142857143 0.35892857142857143 0.7178571428571429 0
0.3535714285714286 0.3535714285714286 0.7071428571428572 0
0.3482142857142857 0.3482142857142857 0.6964285714285714 0
0.34285714285714286 0.34285714285714286 0.6857142857142857 0
0.33749999999999997 0.33749999999999997 0.6749999999999999 0
0.33214285714285713 0.33214285714285713 0.6642857142857143 0
0.3267857142857143 0.3267857142857143 0.6535714285714286 0
0.3214285714285714 0.3214285714285714 0.6428571428571428 0
0.31607142857142856 0.31607142857142856 0.6321428571428571 0
0.31071428571428567 0.31071428571428567 0.6214285714285713 0
0.3053571428571428 0.3053571428571428 0.6107142857142857 0
0.3 0.3 0.6 0
0.29464285714285715 0.29464285714285715 0.5892857142857143 0
0.2892857142857143 0.2892857142857143 0.5785714285714286 0
0.2839285714285714 0.2839285714285714 0.5678571428571428 0
0.2785714285714286 0.2785714285714286 0.5571428571428572 0
0.27321428571428574 0.27321428571428574 0.5464285714285715 0
0.26785714285714285 0.26785714285714285 0.5357142857142857 0
0.2625 0.2625 0.525 0
0.2571428571428572 0.2571428571428572 0.5142857142857143 0
0.25178571428571433 0.25178571428571433 0.5035714285714287 0
0.2464285714285714 0.2464285714285714 0.4928571428571428 0
0.24107142857142858 0.24107142857142858 0.48214285714285715 0
0.23571428571428568 0.23571428571428568 0.47142857142857136 0
0.23035714285714284 0.23035714285714284 0.4607142857142857 0
0.225 0.225 0.45 0
0.2196428571428571 0.2196428571428571 0.4392857142857142 0
0.21428571428571427 0.21428571428571427 0.42857142857142855 0
0.20892857142857144 0.20892857142857144 0.41785714285714287 0
0.20357142857142857 0.20357142857142857 0.40714285714285714 0
0.1982142857142857 0.1982142857142857 0.3964285714285714 0
0.19285714285714287 0.19285714285714287 0.38571428571428573 0
0.1875 0.1875 0.375 0
0.18214285714285716 0.18214285714285716 0.3642857142857143 0
0.1767857142857143 0.1767857142857143 0.3535714285714286 0
0.17142857142857143 0.17142857142857143 0.34285714285714286 0
0.16607142857142854 0.16607142857142854 0.3321428571428571 0
0.16071428571428573 0.16071428571428573 0.32142857142857145 0
0.15535714285714283 0.15535714285714283 0.31071428571428567 0
0.15 0.15 0.3 0
0.1446428571428571 0.1446428571428571 0.2892857142857142 0
0.13928571428571432 0.13928571428571432 0.27857142857142864 0
0.13392857142857142 0.13392857142857142 0.26785714285714285 0
0.1285714285714286 0.1285714285714286 0.2571428571428572 0
0.12321428571428573 0.12321428571428573 0.24642857142857147 0
0.11785714285714284 0.11785714285714284 0.23571428571428568 0
0.1125 0.1125 0.225 0
0.10714285714285715 0.10714285714285715 0.2142857142857143 0
0.10178571428571431 0.10178571428571431 0.20357142857142863 0
0.09642857142857142 0.09642857142857142 0.19285714285714284 0
0.09107142857142858 0.09107142857142858 0.18214285714285716 0
0.08571428571428569 0.08571428571428569 0.17142857142857137 0
0.08035714285714284 0.08035714285714284 0.16071428571428567 0
0.075 0.075 0.15 0
0.06964285714285716 0.06964285714285716 0.13928571428571432 0
0.06428571428571427 0.06428571428571427 0.12857142857142853 0
0.05892857142857142 0.05892857142857142 0.11785714285714284 0
0.053571428571428575 0.053571428571428575 0.10714285714285715 0
0.04821428571428568 0.04821428571428568 0.09642857142857136 0
0.04285714285714289 0.04285714285714289 0.08571428571428578 0
0.0375 0.0375 0.075 0
0.032142857142857154 0.032142857142857154 0.06428571428571431 0
0.026785714285714263 0.026785714285714263 0.05357142857142853 0
0.021428571428571422 0.021428571428571422 0.042857142857142844 0
0.016071428571428577 0.016071428571428577 0.032142857142857154 0
0.010714285714285735 0.010714285714285735 0.02142857142857147 0
0.0053571428571428424 0.0053571428571428424 0.010714285714285685 0
0.0 0.0 0.0 0 \Gamma
0.008771929824561403 0.008771929824561403 0.008771929824561403 0
0.017543859649122806 0.017543859649122806 0.017543859649122806 0
0.02631578947368421 0.02631578947368421 0.02631578947368421 0
0.03508771929824561 0.03508771929824561 0.03508771929824561 0
0.043859649122807015 0.043859649122807015 0.043859649122807015 0
0.05263157894736842 0.05263157894736842 0.05263157894736842 0
0.06140350877192982 0.06140350877192982 0.06140350877192982 0
0.07017543859649122 0.07017543859649122 0.07017543859649122 0
0.07894736842105263 0.07894736842105263 0.07894736842105263 0
0.08771929824561403 0.08771929824561403 0.08771929824561403 0
0.09649122807017545 0.09649122807017545 0.09649122807017545 0
0.10526315789473684 0.10526315789473684 0.10526315789473684 0
0.11403508771929824 0.11403508771929824 0.11403508771929824 0
0.12280701754385964 0.12280701754385964 0.12280701754385964 0
0.13157894736842105 0.13157894736842105 0.13157894736842105 0
0.14035087719298245 0.14035087719298245 0.14035087719298245 0
0.14912280701754388 0.14912280701754388 0.14912280701754388 0
0.15789473684210525 0.15789473684210525 0.15789473684210525 0
0.16666666666666666 0.16666666666666666 0.16666666666666666 0
0.17543859649122806 0.17543859649122806 0.17543859649122806 0
0.18421052631578946 0.18421052631578946 0.18421052631578946 0
0.1929824561403509 0.1929824561403509 0.1929824561403509 0
0.20175438596491227 0.20175438596491227 0.20175438596491227 0
0.21052631578947367 0.21052631578947367 0.21052631578947367 0
0.21929824561403508 0.21929824561403508 0.21929824561403508 0
0.22807017543859648 0.22807017543859648 0.22807017543859648 0
0.23684210526315788 0.23684210526315788 0.23684210526315788 0
0.24561403508771928 0.24561403508771928 0.24561403508771928 0
0.2543859649122807 0.2543859649122807 0.2543859649122807 0
0.2631578947368421 0.2631578947368421 0.2631578947368421 0
0.2719298245614035 0.2719298245614035 0.2719298245614035 0
0.2807017543859649 0.2807017543859649 0.2807017543859649 0
0.2894736842105263 0.2894736842105263 0.2894736842105263 0
0.29824561403508776 0.29824561403508776 0.29824561403508776 0
0.30701754385964913 0.30701754385964913 0.30701754385964913 0
0.3157894736842105 0.3157894736842105 0.3157894736842105 0
0.32456140350877194 0.32456140350877194 0.32456140350877194 0
0.3333333333333333 0.3333333333333333 0.3333333333333333 0
0.34210526315789475 0.34210526315789475 0.34210526315789475 0
0.3508771929824561 0.3508771929824561 0.3508771929824561 0
0.35964912280701755 0.35964912280701755 0.35964912280701755 0
0.3684210526315789 0.3684210526315789 0.3684210526315789 0
0.3771929824561404 0.3771929824561404 0.3771929824561404 0
0.3859649122807018 0.3859649122807018 0.3859649122807018 0
0.3947368421052632 0.3947368421052632 0.3947368421052632 0
0.40350877192982454 0.40350877192982454 0.40350877192982454 0
0.41228070175438597 0.41228070175438597 0.41228070175438597 0
0.42105263157894735 0.42105263157894735 0.42105263157894735 0
0.4298245614035088 0.4298245614035088 0.4298245614035088 0
0.43859649122807015 0.43859649122807015 0.43859649122807015 0
0.4473684210526316 0.4473684210526316 0.4473684210526316 0
0.45614035087719296 0.45614035087719296 0.45614035087719296 0
0.46491228070175444 0.46491228070175444 0.46491228070175444 0
0.47368421052631576 0.47368421052631576 0.47368421052631576 0
0.4824561403508772 0.4824561403508772 0.4824561403508772 0
0.49122807017543857 0.49122807017543857 0.49122807017543857 0
0.5 0.5 0.5 0 L
0.5030487804878049 0.4939024390243903 0.5030487804878049 0
0.5060975609756098 0.4878048780487805 0.5060975609756098 0
0.5091463414634146 0.4817073170731707 0.5091463414634146 0
0.5121951219512195 0.475609756097561 0.5121951219512195 0
0.5152439024390245 0.4695121951219513 0.5152439024390245 0
0.5182926829268293 0.46341463414634143 0.5182926829268293 0
0.5213414634146342 0.4573170731707317 0.5213414634146342 0
0.524390243902439 0.451219512195122 0.524390243902439 0
0.5274390243902439 0.4451219512195122 0.5274390243902439 0
0.5304878048780488 0.43902439024390244 0.5304878048780488 0
0.5335365853658537 0.43292682926829273 0.5335365853658537 0
0.5365853658536586 0.4268292682926829 0.5365853658536586 0
0.5396341463414634 0.4207317073170732 0.5396341463414634 0
0.5426829268292683 0.41463414634146345 0.5426829268292683 0
0.5457317073170731 0.4085365853658537 0.5457317073170731 0
0.5487804878048781 0.4024390243902439 0.5487804878048781 0
0.5518292682926829 0.39634146341463417 0.5518292682926829 0
0.5548780487804879 0.3902439024390244 0.5548780487804879 0
0.5579268292682927 0.38414634146341464 0.5579268292682927 0
0.5609756097560976 0.3780487804878049 0.5609756097560976 0
0.5640243902439024 0.3719512195121951 0.5640243902439024 0
0.5670731707317074 0.3658536585365854 0.5670731707317074 0
0.5701219512195121 0.3597560975609756 0.5701219512195121 0
0.5731707317073171 0.35365853658536583 0.5731707317073171 0
0.576219512195122 0.34756097560975613 0.576219512195122 0
0.5792682926829269 0.34146341463414637 0.5792682926829269 0
0.5823170731707317 0.33536585365853655 0.5823170731707317 0
0.5853658536585367 0.32926829268292684 0.5853658536585367 0
0.5884146341463414 0.3231707317073171 0.5884146341463414 0
0.5914634146341464 0.3170731707317074 0.5914634146341464 0
0.5945121951219512 0.31097560975609756 0.5945121951219512 0
0.5975609756097561 0.3048780487804878 0.5975609756097561 0
0.6006097560975611 0.29878048780487804 0.6006097560975611 0
0.603658536585366 0.29268292682926833 0.603658536585366 0
0.6067073170731707 0.2865853658536585 0.6067073170731707 0
0.6097560975609757 0.2804878048780488 0.6097560975609757 0
0.6128048780487805 0.27439024390243905 0.6128048780487805 0
0.6158536585365854 0.26829268292682923 0.6158536585365854 0
0.6189024390243902 0.2621951219512195 0.6189024390243902 0
0.621951219512195 0.25609756097560976 0.621951219512195 0
0.625 0.25 0.625 0 U
0.6197916666666666 0.25 0.6302083333333334 0
0.6145833333333334 0.25 0.6354166666666666 0
0.609375 0.25 0.640625 0
0.6041666666666666 0.25 0.6458333333333334 0
0.5989583333333334 0.25 0.6510416666666667 0
0.59375 0.25 0.65625 0
0.5885416666666667 0.25 0.6614583333333333 0
0.5833333333333334 0.24999999999999997 0.6666666666666666 0
0.578125 0.24999999999999997 0.671875 0
0.5729166666666667 0.25 0.6770833333333333 0
0.5677083333333334 0.25 0.6822916666666666 0
0.5625 0.25 0.6875 0
0.5572916666666667 0.25 0.6927083333333333 0
0.5520833333333334 0.25 0.6979166666666666 0
0.546875 0.25 0.703125 0
0.5416666666666667 0.24999999999999997 0.7083333333333333 0
0.5364583333333334 0.24999999999999997 0.7135416666666666 0
0.53125 0.25 0.71875 0
0.5260416666666667 0.25 0.7239583333333333 0
0.5208333333333334 0.25 0.7291666666666666 0
0.515625 0.25 0.734375 0
0.5104166666666667 0.25 0.7395833333333333 0
0.5052083333333334 0.25 0.7447916666666666 0
0.5 0.25 0.75 0 W
0.5 0.2553191489361702 0.7446808510638298 0
0.5000000000000001 0.26063829787234044 0.7393617021276596 0
0.5000000000000001 0.26595744680851063 0.7340425531914894 0
0.5 0.2712765957446808 0.7287234042553191 0
0.5000000000000001 0.2765957446808511 0.723404255319149 0
0.5000000000000001 0.28191489361702127 0.7180851063829787 0
0.5 0.28723404255319146 0.7127659574468085 0
0.5000000000000001 0.2925531914893617 0.7074468085106383 0
0.5 0.2978723404255319 0.7021276595744681 0
0.5 0.3031914893617021 0.6968085106382979 0
0.5 0.30851063829787234 0.6914893617021276 0
0.5 0.31382978723404253 0.6861702127659575 0
0.5 0.3191489361702128 0.6808510638297872 0
0.5 0.324468085106383 0.675531914893617 0
0.5 0.32978723404255317 0.6702127659574468 0
0.5 0.3351063829787234 0.6648936170212766 0
0.5 0.3404255319148936 0.6595744680851063 0
0.5 0.3457446808510638 0.6542553191489361 0
0.5 0.351063829787234 0.648936170212766 0
0.5 0.35638297872340424 0.6436170212765957 0
0.5 0.36170212765957444 0.6382978723404256 0
0.5 0.3670212765957447 0.6329787234042553 0
0.5 0.3723404255319149 0.6276595744680851 0
0.5 0.37765957446808507 0.6223404255319149 0
0.5 0.3829787234042553 0.6170212765957447 0
0.5 0.38829787234042556 0.6117021276595744 0
0.5 0.39361702127659576 0.6063829787234043 0
0.5 0.39893617021276595 0.601063829787234 0
0.5 0.4042553191489362 0.5957446808510638 0
0.5 0.4095744680851064 0.5904255319148937 0
0.5 0.4148936170212766 0.5851063829787235 0
0.5 0.42021276595744683 0.5797872340425532 0
0.5 0.425531914893617 0.574468085106383 0
0.5 0.4308510638297872 0.5691489361702127 0
0.5 0.43617021276595747 0.5638297872340425 0
0.5 0.44148936170212766 0.5585106382978724 0
0.5 0.44680851063829785 0.553191489361702 0
0.5 0.4521276595744681 0.5478723404255319 0
0.5 0.4574468085106383 0.5425531914893618 0
0.5 0.4627659574468085 0.5372340425531915 0
0.5 0.46808510638297873 0.5319148936170213 0
0.5 0.47340425531914887 0.5265957446808511 0
0.5 0.4787234042553191 0.5212765957446809 0
0.5 0.48404255319148937 0.5159574468085106 0
0.5 0.48936170212765956 0.5106382978723405 0
0.49999999999999994 0.49468085106382975 0.5053191489361701 0
0.5 0.5 0.5 0 L
0.4969512195121951 0.4969512195121951 0.5060975609756098 0
0.49390243902439024 0.49390243902439024 0.5121951219512195 0
0.49085365853658536 0.49085365853658536 0.5182926829268293 0
0.48780487804878053 0.48780487804878053 0.524390243902439 0
0.4847560975609756 0.4847560975609756 0.5304878048780488 0
0.4817073170731707 0.4817073170731707 0.5365853658536586 0
0.4786585365853659 0.4786585365853659 0.5426829268292683 0
0.475609756097561 0.475609756097561 0.5487804878048781 0
0.4725609756097561 0.4725609756097561 0.5548780487804877 0
0.46951219512195125 0.46951219512195125 0.5609756097560976 0
0.4664634146341464 0.4664634146341464 0.5670731707317074 0
0.46341463414634143 0.46341463414634143 0.573170731707317 0
0.46036585365853655 0.46036585365853655 0.5792682926829268 0
0.4573170731707318 0.4573170731707318 0.5853658536585367 0
0.45426829268292684 0.45426829268292684 0.5914634146341463 0
0.4512195121951219 0.4512195121951219 0.5975609756097561 0
0.44817073170731714 0.44817073170731714 0.603658536585366 0
0.4451219512195122 0.4451219512195122 0.6097560975609756 0
0.44207317073170727 0.44207317073170727 0.6158536585365854 0
0.43902439024390244 0.43902439024390244 0.6219512195121951 0
0.43597560975609756 0.43597560975609756 0.6280487804878049 0
0.4329268292682927 0.4329268292682927 0.6341463414634146 0
0.4298780487804878 0.4298780487804878 0.6402439024390244 0
0.42682926829268286 0.42682926829268286 0.646341463414634 0
0.4237804878048781 0.4237804878048781 0.6524390243902439 0
0.4207317073170732 0.4207317073170732 0.6585365853658537 0
0.4176829268292682 0.4176829268292682 0.6646341463414633 0
0.41463414634146345 0.41463414634146345 0.6707317073170732 0
0.41158536585365857 0.41158536585365857 0.676829268292683 0
0.40853658536585363 0.40853658536585363 0.6829268292682926 0
0.40548780487804875 0.40548780487804875 0.6890243902439024 0
0.4024390243902439 0.4024390243902439 0.6951219512195123 0
0.399390243902439 0.399390243902439 0.7012195121951219 0