POSCAR generated by cell class
1.0
  4.4282979162998792    0.0000000000000000    0.0000000000000000
 -2.2141489581499387    3.8350184910413914    0.0000000000000000
  0.0000000000000000    0.0000000000000000    6.3679970035900002
 3 6
Direct
  0.5000000000000000    0.0000000000000000    0.0000000000000000 # 11
  0.5000000000000000    0.5000000000000000    0.6666666666666667 # 12
  0.0000000000000000    0.5000000000000000    0.3333333333333333 # 13
  0.1657500000000000    0.3315000000000000    0.0000000000000000 # 21
  0.8342500000000002    0.1657500000000000    0.6666666666666667 # 22
  0.6685000000000000    0.8342500000000002    0.3333333333333333 # 23
  0.8342500000000002    0.6685000000000000    0.0000000000000000 # 24
  0.1657500000000000    0.8342500000000002    0.6666666666666667 # 25
  0.3315000000000000    0.1657500000000000    0.3333333333333333 # 26
