$cell vectors
1.0
 11.6699945087775347    0.0000000000000000    0.0000000000000000
 -5.8349972543887612   10.1065117066262431    0.0000000000000000
  0.0000000000000000    0.0000000000000000    9.9499953181093730
 6 24 6 6 6
Direct
  0.3183999999999998    0.3618999999999999    0.2500000000000000 # Sb1
  0.6815999999999997    0.6381000000000000    0.7500000000000002 # Sb2
  0.9564999999999999    0.3184000000000002    0.7500000000000002 # Sb3
  0.0435000000000001    0.6816000000000002    0.2500000000000000 # Sb4
  0.6380999999999997    0.9565000000000002    0.2500000000000000 # Sb5
  0.3619000000000001    0.0435000000000002    0.7500000000000002 # Sb6
  0.1844999999999997    0.1379999999999998    0.2500000000000000 # Cl1
  0.5276999999999996    0.3912999999999998    0.2500000000000000 # Cl2
  0.3118999999999997    0.3760999999999999    0.0185000000000003 # Cl3
  0.8154999999999997    0.8620000000000001    0.7500000000000002 # Cl4
  0.4722999999999998    0.6087000000000001    0.7500000000000002 # Cl5
  0.6880999999999997    0.6239000000000000    0.9815000000000004 # Cl6
  1.0465000000000000    0.1845000000000001    0.7500000000000002 # Cl7
  1.1363999999999994    0.5276999999999998    0.7500000000000002 # Cl8
  0.9357999999999997    0.3118999999999998    0.5185000000000004 # Cl9
 -0.0464999999999998    0.8155000000000003    0.2500000000000000 # Cl10
 -0.1364000000000002    0.4723000000000000    0.2500000000000000 # Cl11
  0.0641999999999998    0.6881000000000000    0.4815000000000004 # Cl12
  0.8619999999999994    1.0465000000000002    0.2500000000000000 # Cl13
  0.6087000000000000    1.1364000000000005    0.2500000000000000 # Cl14
  0.6238999999999998    0.9357999999999999    0.0185000000000003 # Cl15
  0.1380000000000001   -0.0464999999999998    0.7500000000000002 # Cl16
  0.3913000000000000   -0.1364000000000000    0.7500000000000002 # Cl17
  0.3761000000000002    0.0642000000000001    0.9815000000000004 # Cl18
  0.6880999999999997    0.6239000000000000    0.5185000000000004 # Cl19
  0.3118999999999997    0.3760999999999999    0.4815000000000004 # Cl20
  0.0641999999999998    0.6881000000000000    0.0185000000000003 # Cl21
  0.9357999999999997    0.3118999999999998    0.9815000000000004 # Cl22
  0.3761000000000002    0.0642000000000001    0.5185000000000004 # Cl23
  0.6238999999999998    0.9357999999999999    0.4815000000000004 # Cl24
  0.3720000000000001    0.5740000000000002    0.2500000000000000 # N1
  0.6280000000000001    0.4260000000000003    0.7500000000000002 # N2
  0.7980000000000000    0.3720000000000003    0.7500000000000002 # N3
  0.2020000000000001    0.6280000000000002    0.2500000000000000 # N4
  0.4259999999999998    0.7979999999999999    0.2500000000000000 # N5
  0.5740000000000001    0.2019999999999999    0.7500000000000002 # N6
  0.2399999999999997    0.5370000000000004    0.2500000000000000 # C1
  0.7599999999999998    0.4630000000000001    0.7500000000000002 # C2
  0.7029999999999997    0.2400000000000001    0.7500000000000002 # C3
  0.2969999999999998    0.7600000000000003    0.2500000000000000 # C4
  0.4629999999999999    0.7030000000000003    0.2500000000000000 # C5
  0.5369999999999998    0.2970000000000002    0.7500000000000002 # C6
  0.1639999999999997    0.4139999999999999    0.2500000000000000 # O1
  0.8359999999999996    0.5860000000000000    0.7500000000000002 # O2
  0.7499999999999998    0.1640000000000002    0.7500000000000002 # O3
  0.2499999999999998    0.8360000000000001    0.2500000000000000 # O4
  0.5860000000000000    0.7500000000000001    0.2500000000000000 # O5
  0.4140000000000002    0.2500000000000003    0.7500000000000002 # O6
