POSCAR generated by cell class
1.0
  3.9599981366545900    0.0000000000000000    0.0000000000000000
 -1.9799990683272899    3.4294589852819102    0.0000000000000000
  0.0000000000000000    0.0000000000000000    3.8439981912374299
 1 2
Direct
  0.0000000000000000    0.0000000000000000    0.0000000000000000 # 11
  0.3333333333333333    0.6666666666666666    0.5000000000000000 # 21
  0.6666666666666666    0.3333333333333333    0.5000000000000000 # 22
