POSCAR generated by cell class
1.0
  5.4479974364884285    0.0000000000000000    0.0000000000000000
 -2.7239987182442129    4.7181041797514780    0.0000000000000000
  0.0000000000000000    0.0000000000000000    8.0909961928465304
 1 1 4 8
Direct
  0.0000000000000000    0.0000000000000000    0.0000000000000000 # 11
  0.0000000000000000    0.0000000000000000    0.5000000000000000 # 21
  0.3333333333333333    0.6666666666666666    0.2450000000000000 # 31
  0.6666666666666666    0.3333333333333333    0.2550000000000000 # 32
  0.3333333333333333    0.6666666666666666    0.7550000000000000 # 33
  0.6666666666666666    0.3333333333333333    0.7450000000000000 # 34
  0.3333333333333333    0.6666666666666666    0.0000000000000000 # 41
  0.6666666666666666    0.3333333333333333    0.5000000000000000 # 42
  0.5150000000000000    0.4850000000000000    0.2600000000000000 # 43
  0.9700000000000000    0.4850000000000000    0.7400000000000000 # 44
  0.5150000000000000    0.0300000000000000    0.2600000000000000 # 45
  0.5150000000000000    0.4850000000000000    0.7400000000000000 # 46
  0.9700000000000000    0.4850000000000000    0.2600000000000000 # 47
  0.5150000000000000    0.0300000000000000    0.7400000000000000 # 48
