POSCAR generated by cell class
1.0
  9.2179956625459525    0.0000000000000000    0.0000000000000000
 -4.6089978312729745    7.9830184157395632    0.0000000000000000
  0.0000000000000000    0.0000000000000000   18.0419915104853708
 18 6 32
Direct
  0.0095000000000000    0.3841000000000000    0.0842000000000000 # 11
  0.3897000000000000    0.3619000000000000    0.2500000000000000 # 12
  0.3746000000000000    0.9904999999999999    0.4158000000000000 # 13
  0.9722000000000000    0.6103000000000000    0.2500000000000000 # 14
  0.6159000000000000    0.6254000000000000    0.0842000000000000 # 15
  0.6381000000000000    0.0278000000000000    0.2500000000000000 # 16
  0.0095000000000000    0.3841000000000000    0.4158000000000000 # 17
  0.3746000000000000    0.9904999999999999    0.0842000000000000 # 18
  0.6159000000000000    0.6254000000000000    0.4158000000000000 # 19
  0.6159000000000000    0.9904999999999999    0.9157999999999999 # 110
  0.6381000000000000    0.6103000000000000    0.7500000000000000 # 111
  0.3746000000000000    0.3841000000000000    0.9157999999999999 # 112
  0.9722000000000000    0.3619000000000000    0.7500000000000000 # 113
  0.0095000000000000    0.6254000000000000    0.9157999999999999 # 114
  0.3897000000000000    0.0278000000000000    0.7500000000000000 # 115
  0.3746000000000000    0.3841000000000000    0.5842000000000002 # 116
  0.0095000000000000    0.6254000000000000    0.5842000000000002 # 117
  0.6159000000000000    0.9904999999999999    0.5842000000000002 # 118
  0.0000000000000000    0.0000000000000000    0.0000000000000000 # 21
  0.0000000000000000    0.0000000000000000    0.1629000000000000 # 22
  0.0000000000000000    0.0000000000000000    0.5000000000000000 # 23
  0.0000000000000000    0.0000000000000000    0.3371000000000000 # 24
  0.0000000000000000    0.0000000000000000    0.8371000000000000 # 25
  0.0000000000000000    0.0000000000000000    0.6629000000000002 # 26
  0.2289000000000000    0.2206000000000000    0.0841000000000000 # 31
  0.0054000000000000    0.2205000000000000    0.2500000000000000 # 32
  0.3333333333333333    0.6666666666666666    0.0000000000000000 # 33
  0.3333333333333333    0.6666666666666666    0.1936000000000000 # 34
  0.6666666666666666    0.3333333333333333    0.1591000000000000 # 35
  0.6666666666666666    0.3333333333333333    0.0179000000000000 # 36
  0.9917000000000000    0.7711000000000000    0.4159000000000001 # 37
  0.2151000000000000    0.9945999999999999    0.2500000000000000 # 38
  0.3333333333333333    0.6666666666666666    0.5000000000000000 # 39
  0.3333333333333333    0.6666666666666666    0.3064000000000000 # 310
  0.6666666666666666    0.3333333333333333    0.3409000000000000 # 311
  0.6666666666666666    0.3333333333333333    0.4821000000000000 # 312
  0.7794000000000000    0.0083000000000000    0.0841000000000000 # 313
  0.7795000000000000    0.7849000000000002    0.2500000000000000 # 314
  0.2289000000000000    0.2206000000000000    0.4159000000000001 # 315
  0.9917000000000000    0.7711000000000000    0.0841000000000000 # 316
  0.7794000000000000    0.0083000000000000    0.4159000000000001 # 317
  0.7794000000000000    0.7711000000000000    0.9158999999999999 # 318
  0.7795000000000000    0.9945999999999999    0.7500000000000000 # 319
  0.3333333333333333    0.6666666666666666    0.8064000000000000 # 320
  0.6666666666666666    0.3333333333333333    0.8409000000000000 # 321
  0.6666666666666666    0.3333333333333333    0.9821000000000000 # 322
  0.9917000000000000    0.2206000000000000    0.9158999999999999 # 323
  0.2151000000000000    0.2205000000000000    0.7500000000000000 # 324
  0.2289000000000000    0.0083000000000000    0.9158999999999999 # 325
  0.0054000000000000    0.7849000000000002    0.7500000000000000 # 326
  0.9917000000000000    0.2206000000000000    0.5841000000000000 # 327
  0.3333333333333333    0.6666666666666666    0.6936000000000000 # 328
  0.6666666666666666    0.3333333333333333    0.6591000000000000 # 329
  0.6666666666666666    0.3333333333333333    0.5179000000000000 # 330
  0.2289000000000000    0.0083000000000000    0.5841000000000000 # 331
  0.7794000000000000    0.7711000000000000    0.5841000000000000 # 332
