POSCAR generated by cell class
1.0
 10.4569950795447006    0.0000000000000000    0.0000000000000000
 -5.2284975397723503    9.0560233861345907    0.0000000000000000
  0.0000000000000000    0.0000000000000000   14.2379933004262593
 2 64 10 24
Direct
  0.0000000000000000    0.0000000000000000    0.2500000000000000 # 11
  0.0000000000000000    0.0000000000000000    0.7500000000000000 # 12
  0.3333333333333333    0.6666666666666666    0.0000000000000000 # 21
  0.1209000000000000    0.3640000000000000    0.0000000000000000 # 22
  0.2136000000000000    0.2695000000000000    0.1403000000000000 # 23
  0.1560000000000000    0.4896000000000000    0.1644000000000000 # 24
  0.6666666666666666    0.3333333333333333    0.0000000000000000 # 25
  0.8791000000000000    0.6360000000000000    0.0000000000000000 # 26
  0.7864000000000000    0.7305000000000001    0.8597000000000000 # 27
  0.8440000000000000    0.5104000000000000    0.8356000000000000 # 28
  0.7569000000000000    0.1209000000000000    0.0000000000000000 # 29
  0.9440999999999999    0.2136000000000000    0.1403000000000000 # 210
  0.6664000000000000    0.1560000000000000    0.1644000000000000 # 211
  0.2431000000000000    0.8791000000000000    0.0000000000000000 # 212
  0.0559000000000000    0.7864000000000000    0.8597000000000000 # 213
  0.3336000000000000    0.8440000000000000    0.8356000000000000 # 214
  0.6360000000000000    0.7569000000000000    0.0000000000000000 # 215
  0.7305000000000001    0.9440999999999999    0.1403000000000000 # 216
  0.5104000000000000    0.6664000000000000    0.1644000000000000 # 217
  0.3640000000000000    0.2431000000000000    0.0000000000000000 # 218
  0.2695000000000000    0.0559000000000000    0.8597000000000000 # 219
  0.4896000000000000    0.3336000000000000    0.8356000000000000 # 220
  0.7864000000000000    0.7305000000000001    0.1403000000000000 # 221
  0.8440000000000000    0.5104000000000000    0.1644000000000000 # 222
  0.2136000000000000    0.2695000000000000    0.8597000000000000 # 223
  0.1560000000000000    0.4896000000000000    0.8356000000000000 # 224
  0.0559000000000000    0.7864000000000000    0.1403000000000000 # 225
  0.3336000000000000    0.8440000000000000    0.1644000000000000 # 226
  0.9440999999999999    0.2136000000000000    0.8597000000000000 # 227
  0.6664000000000000    0.1560000000000000    0.8356000000000000 # 228
  0.2695000000000000    0.0559000000000000    0.1403000000000000 # 229
  0.4896000000000000    0.3336000000000000    0.1644000000000000 # 230
  0.7305000000000001    0.9440999999999999    0.8597000000000000 # 231
  0.5104000000000000    0.6664000000000000    0.8356000000000000 # 232
  0.6666666666666666    0.3333333333333333    0.5000000000000000 # 233
  0.7569000000000000    0.6360000000000000    0.5000000000000000 # 234
  0.9440999999999999    0.7305000000000001    0.3597000000000001 # 235
  0.6664000000000000    0.5104000000000000    0.3356000000000000 # 236
  0.2431000000000000    0.3640000000000000    0.5000000000000000 # 237
  0.0559000000000000    0.2695000000000000    0.6403000000000000 # 238
  0.3336000000000000    0.4896000000000000    0.6644000000000000 # 239
  0.8791000000000000    0.2431000000000000    0.5000000000000000 # 240
  0.7864000000000000    0.0559000000000000    0.3597000000000001 # 241
  0.8440000000000000    0.3336000000000000    0.3356000000000000 # 242
  0.1209000000000000    0.7569000000000000    0.5000000000000000 # 243
  0.2136000000000000    0.9440999999999999    0.6403000000000000 # 244
  0.1560000000000000    0.6664000000000000    0.6644000000000000 # 245
  0.3640000000000000    0.1209000000000000    0.5000000000000000 # 246
  0.2695000000000000    0.2136000000000000    0.3597000000000001 # 247
  0.4896000000000000    0.1560000000000000    0.3356000000000000 # 248
  0.3333333333333333    0.6666666666666666    0.5000000000000000 # 249
  0.6360000000000000    0.8791000000000000    0.5000000000000000 # 250
  0.7305000000000001    0.7864000000000000    0.6403000000000000 # 251
  0.5104000000000000    0.8440000000000000    0.6644000000000000 # 252
  0.7305000000000001    0.7864000000000000    0.3597000000000001 # 253
  0.5104000000000000    0.8440000000000000    0.3356000000000000 # 254
  0.2695000000000000    0.2136000000000000    0.6403000000000000 # 255
  0.4896000000000000    0.1560000000000000    0.6644000000000000 # 256
  0.0559000000000000    0.2695000000000000    0.3597000000000001 # 257
  0.3336000000000000    0.4896000000000000    0.3356000000000000 # 258
  0.9440999999999999    0.7305000000000001    0.6403000000000000 # 259
  0.6664000000000000    0.5104000000000000    0.6644000000000000 # 260
  0.2136000000000000    0.9440999999999999    0.3597000000000001 # 261
  0.1560000000000000    0.6664000000000000    0.3356000000000000 # 262
  0.7864000000000000    0.0559000000000000    0.6403000000000000 # 263
  0.8440000000000000    0.3336000000000000    0.6644000000000000 # 264
  0.3333333333333333    0.6666666666666666    0.2500000000000000 # 31
  0.5000000000000000    0.0000000000000000    0.2500000000000000 # 32
  0.6666666666666666    0.3333333333333333    0.7500000000000000 # 33
  0.5000000000000000    0.0000000000000000    0.7500000000000000 # 34
  0.6666666666666666    0.3333333333333333    0.2500000000000000 # 35
  0.5000000000000000    0.5000000000000000    0.2500000000000000 # 36
  0.5000000000000000    0.5000000000000000    0.7500000000000000 # 37
  0.0000000000000000    0.5000000000000000    0.2500000000000000 # 38
  0.0000000000000000    0.5000000000000000    0.7500000000000000 # 39
  0.3333333333333333    0.6666666666666666    0.7500000000000000 # 310
  0.1103000000000000    0.3396000000000000    0.1121000000000000 # 41
  0.8897000000000002    0.6604000000000000    0.8879000000000000 # 42
  0.7707000000000002    0.1103000000000000    0.1121000000000000 # 43
  0.2293000000000000    0.8897000000000002    0.8879000000000000 # 44
  0.6604000000000000    0.7707000000000002    0.1121000000000000 # 45
  0.3396000000000000    0.2293000000000000    0.8879000000000000 # 46
  0.8897000000000002    0.6604000000000000    0.1121000000000000 # 47
  0.1103000000000000    0.3396000000000000    0.8879000000000000 # 48
  0.2293000000000000    0.8897000000000002    0.1121000000000000 # 49
  0.7707000000000002    0.1103000000000000    0.8879000000000000 # 410
  0.3396000000000000    0.2293000000000000    0.1121000000000000 # 411
  0.6604000000000000    0.7707000000000002    0.8879000000000000 # 412
  0.7707000000000002    0.6604000000000000    0.3879000000000001 # 413
  0.2293000000000000    0.3396000000000000    0.6121000000000000 # 414
  0.8897000000000002    0.2293000000000000    0.3879000000000001 # 415
  0.1103000000000000    0.7707000000000002    0.6121000000000000 # 416
  0.3396000000000000    0.1103000000000000    0.3879000000000001 # 417
  0.6604000000000000    0.8897000000000002    0.6121000000000000 # 418
  0.6604000000000000    0.8897000000000002    0.3879000000000001 # 419
  0.3396000000000000    0.1103000000000000    0.6121000000000000 # 420
  0.2293000000000000    0.3396000000000000    0.3879000000000001 # 421
  0.7707000000000002    0.6604000000000000    0.6121000000000000 # 422
  0.1103000000000000    0.7707000000000002    0.3879000000000001 # 423
  0.8897000000000002    0.2293000000000000    0.6121000000000000 # 424
