$cell vectors
1.0
 15.9359925014463339    0.0000000000000000    0.0000000000000000
 -7.9679962507231625   13.8009743407708498    0.0000000000000000
  0.0000000000000000    0.0000000000000000    3.8919981686514271
 12 6 39
Direct
  0.2634000000000000    0.1734000000000001    0.4999999999999993 # Ta1
  0.3479000000000000    0.4368000000000000    0.5149999999999998 # Ta2
  0.0899999999999999    0.2634000000000000    0.4999999999999993 # Ta3
  0.9111000000000000    0.3478999999999999    0.5149999999999998 # Ta4
  0.8266000000000000    0.0900000000000000    0.4999999999999993 # Ta5
  0.5631999999999999    0.9111000000000000    0.5149999999999998 # Ta6
  0.7365999999999998    0.8266000000000000    0.4999999999999993 # Ta7
  0.6521000000000001    0.5632000000000000    0.5149999999999998 # Ta8
  0.9100000000000004    0.7366000000000000    0.4999999999999993 # Ta9
  0.0888999999999999    0.6521000000000000    0.5149999999999998 # Ta10
  0.1733999999999997    0.9099999999999999    0.4999999999999993 # Ta11
  0.4368000000000001    0.0889000000000000    0.5149999999999998 # Ta12
  0.1790000000000002    0.4965000000000003    0.0309999999999994 # K1
  0.6825000000000002    0.1790000000000000    0.0309999999999994 # K2
  0.5035000000000002    0.6825000000000002    0.0309999999999994 # K3
  0.8210000000000002    0.5035000000000002    0.0309999999999994 # K4
  0.3174999999999999    0.8210000000000001    0.0309999999999994 # K5
  0.4964999999999999    0.3174999999999999    0.0309999999999994 # K6
  0.1870000000000001    0.0350000000000000    0.5790000000000001 # F1
  0.0340000000000001    0.3489999999999999    0.5680000000000002 # F2
  0.2200000000000000    0.3880000000000000    0.5759999999999997 # F3
  0.3740000000000000    0.5690000000000002    0.5659999999999999 # F4
  0.4540000000000001    0.0930000000000001    0.0469999999999999 # F5
  0.2730000000000001    0.1779999999999999    0.0310000000000008 # F6
 -0.0000000000000001    0.5000000000000002    0.5859999999999995 # F7
  0.1519999999999998    0.1869999999999999    0.5790000000000001 # F8
  0.6850000000000001    0.0339999999999999    0.5680000000000002 # F9
  0.8320000000000002    0.2200000000000002    0.5759999999999997 # F10
  0.8049999999999998    0.3739999999999998    0.5659999999999999 # F11
  0.3610000000000000    0.4540000000000002    0.0469999999999999 # F12
  0.0949999999999999    0.2730000000000001    0.0310000000000008 # F13
  0.5000000000000000    0.0000000000000000    0.5859999999999995 # F14
  0.9650000000000002    0.1520000000000000    0.5790000000000001 # F15
  0.6510000000000001    0.6850000000000001    0.5680000000000002 # F16
  0.6119999999999999    0.8320000000000001    0.5759999999999997 # F17
  0.4310000000000001    0.8050000000000002    0.5659999999999999 # F18
  0.9069999999999999    0.3610000000000000    0.0469999999999999 # F19
  0.8220000000000005    0.0950000000000002    0.0310000000000008 # F20
  0.5000000000000000    0.5000000000000002    0.5859999999999995 # F21
  0.8129999999999999    0.9650000000000001    0.5790000000000001 # F22
  0.9660000000000000    0.6510000000000000    0.5680000000000002 # F23
  0.7800000000000000    0.6120000000000000    0.5759999999999997 # F24
  0.6260000000000001    0.4310000000000000    0.5659999999999999 # F25
  0.5460000000000000    0.9069999999999999    0.0469999999999999 # F26
  0.7270000000000000    0.8220000000000001    0.0310000000000008 # F27
  0.8480000000000003    0.8130000000000001    0.5790000000000001 # F28
  0.3149999999999997    0.9659999999999997    0.5680000000000002 # F29
  0.1680000000000000    0.7800000000000002    0.5759999999999997 # F30
  0.1949999999999998    0.6260000000000001    0.5659999999999999 # F31
  0.6390000000000001    0.5459999999999998    0.0469999999999999 # F32
  0.9050000000000002    0.7269999999999999    0.0310000000000008 # F33
  0.0350000000000000    0.8480000000000001    0.5790000000000001 # F34
  0.3490000000000000    0.3149999999999999    0.5680000000000002 # F35
  0.3879999999999998    0.1679999999999998    0.5759999999999997 # F36
  0.5690000000000000    0.1949999999999999    0.5659999999999999 # F37
  0.0930000000000001    0.6390000000000000    0.0469999999999999 # F38
  0.1780000000000000    0.9050000000000002    0.0310000000000008 # F39
