$cell vectors
1.0
  9.6499954592719082    0.0000000000000000    0.0000000000000000
 -4.8249977296359523    8.3571412141339536    0.0000000000000000
  0.0000000000000000    0.0000000000000000    3.8569981851203901
 3 3 12
Direct
  0.5723000000000001    0.0000000000000000    0.4999999999999994 # Cs1
  0.4277000000000002    0.4277000000000001    0.4999999999999994 # Cs2
 -0.0000000000000003    0.5722999999999998    0.4999999999999994 # Cs3
  0.2237999999999998    0.0000000000000000    0.0000000000000000 # Cr1
  0.7762000000000002    0.7762000000000000    0.0000000000000000 # Cr2
  0.0000000000000000    0.2238000000000000    0.0000000000000000 # Cr3
  0.8349000000000000    0.0000000000000000    0.0000000000000000 # F1
  0.2200999999999998    0.0000000000000000    0.4999999999999994 # F2
  0.4365000000000004    0.1596000000000002    0.0000000000000000 # F3
  0.1651000000000002    0.1650999999999998    0.0000000000000000 # F4
  0.7799000000000000    0.7799000000000001    0.4999999999999994 # F5
  0.7230999999999999    0.5635000000000000    0.0000000000000000 # F6
  0.0000000000000000    0.8349000000000003    0.0000000000000000 # F7
 -0.0000000000000004    0.2200999999999998    0.4999999999999994 # F8
  0.8403999999999998    0.2768999999999999    0.0000000000000000 # F9
  0.2769000000000001    0.8404000000000005    0.0000000000000000 # F10
  0.5635000000000002    0.7231000000000002    0.0000000000000000 # F11
  0.1596000000000002    0.4365000000000001    0.0000000000000000 # F12
