POSCAR generated by cell class
1.0
 10.5609950306083586    0.0000000000000000    0.0000000000000000
 -5.2804975153041767    9.1460899857480538    0.0000000000000000
  0.0000000000000000    0.0000000000000000   13.5219936373341696
 12 4 20
Direct
  0.3710000000000000    0.0000000000000000    0.0000000000000000 # 11
  0.6040000000000000    0.9690000000000000    0.2500000000000000 # 12
  0.6290000000000000    0.6290000000000000    0.5000000000000000 # 13
  0.3650000000000000    0.3960000000000001    0.2500000000000000 # 14
  0.0000000000000000    0.3710000000000000    0.0000000000000000 # 15
  0.0310000000000000    0.6350000000000000    0.2500000000000000 # 16
  0.3710000000000000    0.0000000000000000    0.5000000000000000 # 17
  0.6290000000000000    0.6290000000000000    0.0000000000000000 # 18
  0.0000000000000000    0.3710000000000000    0.5000000000000000 # 19
  0.6350000000000000    0.0310000000000000    0.7500000000000000 # 110
  0.3960000000000001    0.3650000000000000    0.7500000000000000 # 111
  0.9690000000000000    0.6040000000000000    0.7500000000000000 # 112
  0.0000000000000000    0.0000000000000000    0.3900000000000000 # 21
  0.0000000000000000    0.0000000000000000    0.1100000000000000 # 22
  0.0000000000000000    0.0000000000000000    0.6100000000000000 # 23
  0.0000000000000000    0.0000000000000000    0.8900000000000000 # 24
  0.7430000000000000    0.0000000000000000    0.0000000000000000 # 31
  0.2630000000000000    0.0020000000000000    0.2500000000000000 # 32
  0.3333333333333333    0.6666666666666666    0.3990000000000001 # 33
  0.3333333333333333    0.6666666666666666    0.8660000000000000 # 34
  0.2570000000000000    0.2570000000000000    0.5000000000000000 # 35
  0.7390000000000000    0.7370000000000000    0.2500000000000000 # 36
  0.3333333333333333    0.6666666666666666    0.1010000000000000 # 37
  0.3333333333333333    0.6666666666666666    0.6340000000000000 # 38
  0.0000000000000000    0.7430000000000000    0.0000000000000000 # 39
  0.9980000000000000    0.2610000000000000    0.2500000000000000 # 310
  0.7430000000000000    0.0000000000000000    0.5000000000000000 # 311
  0.2570000000000000    0.2570000000000000    0.0000000000000000 # 312
  0.0000000000000000    0.7430000000000000    0.5000000000000000 # 313
  0.2610000000000000    0.9980000000000000    0.7500000000000000 # 314
  0.6666666666666666    0.3333333333333333    0.6010000000000000 # 315
  0.6666666666666666    0.3333333333333333    0.1340000000000000 # 316
  0.7370000000000000    0.7390000000000000    0.7500000000000000 # 317
  0.0020000000000000    0.2630000000000000    0.7500000000000000 # 318
  0.6666666666666666    0.3333333333333333    0.8990000000000000 # 319
  0.6666666666666666    0.3333333333333333    0.3660000000000000 # 320
