POSCAR generated by cell class
1.0
  5.3099975014231919    0.0000000000000000    0.0000000000000000
 -2.6549987507115946    4.5985927302643805    0.0000000000000000
  0.0000000000000000    0.0000000000000000   14.2499932947797596
 4 4 12
Direct
  0.3333333333333333    0.6666666666666666    0.0680000000000000 # 11
  0.6666666666666666    0.3333333333333333    0.5679999999999999 # 12
  0.6666666666666666    0.3333333333333333    0.9319999999999999 # 13
  0.3333333333333333    0.6666666666666666    0.4320000000000000 # 14
  0.0000000000000000    0.0000000000000000    0.2500000000000000 # 21
  0.3333333333333333    0.6666666666666666    0.2500000000000000 # 22
  0.0000000000000000    0.0000000000000000    0.7500000000000000 # 23
  0.6666666666666666    0.3333333333333333    0.7500000000000000 # 24
  0.9630000000000000    0.2970000000000000    0.1810000000000000 # 31
  0.6660000000000001    0.9630000000000000    0.6810000000000002 # 32
  0.7030000000000000    0.6660000000000001    0.1810000000000000 # 33
  0.0370000000000000    0.7030000000000000    0.6810000000000002 # 34
  0.3340000000000001    0.0370000000000000    0.1810000000000000 # 35
  0.2970000000000000    0.3340000000000001    0.6810000000000002 # 36
  0.6660000000000001    0.7030000000000000    0.8190000000000000 # 37
  0.0370000000000000    0.3340000000000001    0.8190000000000000 # 38
  0.2970000000000000    0.9630000000000000    0.8190000000000000 # 39
  0.7030000000000000    0.0370000000000000    0.3190000000000000 # 310
  0.3340000000000001    0.2970000000000000    0.3190000000000000 # 311
  0.9630000000000000    0.6660000000000001    0.3190000000000000 # 312
