POSCAR generated by cell class
1.0
  9.2249956592521620    0.0000000000000000    0.0000000000000000
 -4.6124978296260792    7.9890805907135478    0.0000000000000000
  0.0000000000000000    0.0000000000000000    5.2239975418897897
 2 6 18
Direct
  0.3333333333333333    0.6666666666666666    0.6387000000000002 # 11
  0.6666666666666666    0.3333333333333333    0.1387000000000000 # 12
  0.3128000000000001    0.9779000000000000    0.0000000000000000 # 21
  0.3349000000000000    0.3128000000000001    0.5000000000000000 # 22
  0.0221000000000000    0.3349000000000000    0.0000000000000000 # 23
  0.6872000000000000    0.0221000000000000    0.5000000000000000 # 24
  0.6651000000000000    0.6872000000000000    0.0000000000000000 # 25
  0.9779000000000000    0.6651000000000000    0.5000000000000000 # 26
  0.8240000000000000    0.0435000000000000    0.2414000000000000 # 31
  0.5785000000000000    0.1266000000000000    0.3444000000000000 # 32
  0.1967000000000000    0.7156000000000000    0.3994000000000000 # 33
  0.7805000000000000    0.8240000000000000    0.7414000000000002 # 34
  0.4519000000000000    0.5785000000000000    0.8444000000000002 # 35
  0.4811000000000000    0.1967000000000000    0.8994000000000000 # 36
  0.9565000000000000    0.7805000000000000    0.2414000000000000 # 37
  0.8734000000000000    0.4519000000000000    0.3444000000000000 # 38
  0.2844000000000000    0.4811000000000000    0.3994000000000000 # 39
  0.1760000000000000    0.9565000000000000    0.7414000000000002 # 310
  0.4215000000000000    0.8734000000000000    0.8444000000000002 # 311
  0.8033000000000000    0.2844000000000000    0.8994000000000000 # 312
  0.2195000000000000    0.1760000000000000    0.2414000000000000 # 313
  0.5481000000000000    0.4215000000000000    0.3444000000000000 # 314
  0.5189000000000000    0.8033000000000000    0.3994000000000000 # 315
  0.0435000000000000    0.2195000000000000    0.7414000000000002 # 316
  0.1266000000000000    0.5481000000000000    0.8444000000000002 # 317
  0.7156000000000000    0.5189000000000000    0.8994000000000000 # 318
