$cell vectors
1.0
  9.7089954315099458    0.0000000000000000    0.0000000000000000
 -4.8544977157549702    8.4082366889146698    0.0000000000000000
  0.0000000000000000    0.0000000000000000   19.3429908983105179
 6 24 24 12 6 12
Direct
  0.9639999999999999    0.1304000000000002    0.0000000000000000 # Pt1
  0.8335999999999997    0.9639999999999997    0.1666666666666667 # Pt2
  0.8695999999999998    0.8336000000000003    0.3333333333333335 # Pt3
  0.0359999999999998    0.8695999999999998    0.5000000000000002 # Pt4
  0.1664000000000003    0.0360000000000001    0.6666666666666670 # Pt5
  0.1304000000000000    0.1664000000000003    0.8333333333333337 # Pt6
  0.9059999999999997    0.3006999999999999    0.0013000000000001 # C1
  1.1887999999999996    0.2833999999999997    0.0231999999999999 # C2
  1.0142999999999998   -0.0439999999999999   -0.0009999999999999 # C3
  0.7390000000000000   -0.0210000000000000   -0.0230000000000000 # C4
  0.6053000000000002    0.9060000000000004    0.1679666666666668 # C5
  0.9054000000000000    1.1888000000000001    0.1898666666666666 # C6
  1.0582999999999996    1.0143000000000002    0.1656666666666668 # C7
  0.7600000000000000    0.7390000000000000    0.1436666666666667 # C8
  0.6992999999999998    0.6052999999999998    0.3346333333333333 # C9
  0.7165999999999999    0.9054000000000002    0.3565333333333333 # C10
  1.0439999999999998    1.0583000000000000    0.3323333333333335 # C11
  1.0209999999999995    0.7600000000000000    0.3103333333333334 # C12
  0.0940000000000003    0.6993000000000000    0.5013000000000001 # C13
 -0.1887999999999997    0.7166000000000002    0.5232000000000002 # C14
 -0.0142999999999999    1.0439999999999998    0.4990000000000003 # C15
  0.2610000000000001    1.0209999999999999    0.4770000000000001 # C16
  0.3947000000000001    0.0940000000000002    0.6679666666666668 # C17
  0.0945999999999998   -0.1888000000000001    0.6898666666666667 # C18
 -0.0583000000000002   -0.0143000000000002    0.6656666666666667 # C19
  0.2400000000000000    0.2610000000000000    0.6436666666666667 # C20
  0.3007000000000002    0.3947000000000001    0.8346333333333336 # C21
  0.2834000000000004    0.0946000000000003    0.8565333333333339 # C22
 -0.0439999999999998   -0.0583000000000001    0.8323333333333335 # C23
 -0.0210000000000001    0.2400000000000000    0.8103333333333337 # C24
  0.8660000000000001    0.3951999999999997    0.0020999999999999 # N1
  1.3207999999999995    0.3715999999999997    0.0370000000000001 # N2
  1.0432999999999999   -0.1459999999999998   -0.0019999999999999 # N3
  0.6070000000000000   -0.1069999999999998   -0.0370000000000001 # N4
  0.4708000000000000    0.8659999999999997    0.1687666666666667 # N5
  0.9491999999999998    1.3208000000000004    0.2036666666666668 # N6
  1.1892999999999994    1.0432999999999997    0.1646666666666666 # N7
  0.7140000000000000    0.6070000000000004    0.1296666666666667 # N8
  0.6048000000000001    0.4708000000000001    0.3354333333333334 # N9
  0.6284000000000001    0.9492000000000000    0.3703333333333333 # N10
  1.1459999999999995    1.1893000000000002    0.3313333333333334 # N11
  1.1070000000000000    0.7140000000000001    0.2963333333333334 # N12
  0.1340000000000000    0.6048000000000002    0.5021000000000001 # N13
 -0.3207999999999996    0.6284000000000002    0.5370000000000003 # N14
 -0.0432999999999997    1.1460000000000004    0.4980000000000000 # N15
  0.3930000000000001    1.1069999999999998    0.4630000000000001 # N16
  0.5292000000000000    0.1340000000000002    0.6687666666666670 # N17
  0.0508000000000001   -0.3208000000000003    0.7036666666666668 # N18
 -0.1892999999999997   -0.0433000000000000    0.6646666666666671 # N19
  0.2860000000000004    0.3930000000000002    0.6296666666666668 # N20
  0.3952000000000000    0.5292000000000000    0.8354333333333337 # N21
  0.3715999999999999    0.0508000000000000    0.8703333333333335 # N22
 -0.1459999999999998   -0.1892999999999997    0.8313333333333335 # N23
 -0.1070000000000000    0.2859999999999998    0.7963333333333336 # N24
  0.6590000000000000    0.5790000000000001    0.9600000000000005 # Cs1
  0.4390000000000000    0.0841000000000003    0.0397000000000000 # Cs2
  0.0800000000000001    0.6589999999999999    0.1266666666666666 # Cs3
  0.3548999999999999    0.4390000000000000    0.2063666666666668 # Cs4
  0.4209999999999997    0.0800000000000000    0.2933333333333333 # Cs5
  0.9158999999999997    0.3549000000000003    0.3730333333333334 # Cs6
  0.3410000000000000    0.4209999999999999    0.4600000000000003 # Cs7
  0.5610000000000004    0.9159000000000003    0.5397000000000003 # Cs8
  0.9199999999999998    0.3410000000000000    0.6266666666666668 # Cs9
  0.6451000000000000    0.5609999999999999    0.7063666666666671 # Cs10
  0.5789999999999997    0.9199999999999999    0.7933333333333336 # Cs11
  0.0841000000000005    0.6451000000000002    0.8730333333333337 # Cs12
  0.2926000000000001    0.6685000000000000    1.0004000000000002 # O1
  0.6241000000000001    0.2926000000000004    0.1670666666666667 # O2
  0.3314999999999997    0.6241000000000002    0.3337333333333334 # O3
  0.7073999999999998    0.3315000000000000    0.5004000000000002 # O4
  0.3759000000000002    0.7074000000000003    0.6670666666666669 # O5
  0.6684999999999999    0.3759000000000002    0.8337333333333337 # O6
  0.3992999999999998    0.7390000000000000    0.9869999999999999 # H1
  0.2883000000000001    0.5689000000000000    1.0073000000000003 # H2
  0.6603000000000001    0.3993000000000000    0.1536666666666667 # H3
  0.7193999999999997    0.2882999999999998    0.1739666666666668 # H4
  0.2610000000000002    0.6603000000000001    0.3203333333333335 # H5
  0.4310999999999996    0.7193999999999998    0.3406333333333335 # H6
  0.6006999999999997    0.2610000000000000    0.4870000000000002 # H7
  0.7116999999999999    0.4311000000000000    0.5073000000000000 # H8
  0.3396999999999999    0.6006999999999998    0.6536666666666670 # H9
  0.2806000000000002    0.7117000000000001    0.6739666666666667 # H10
  0.7389999999999998    0.3396999999999999    0.8203333333333338 # H11
  0.5688999999999997    0.2806000000000001    0.8406333333333335 # H12
