$cell vectors
1.0
 13.7179935451079835    0.0000000000000000    0.0000000000000000
 -6.8589967725539891   11.8801308990144641    0.0000000000000000
  0.0000000000000000    0.0000000000000000    8.4525960226986268
 12 12 48
Direct
  0.4524999999999998    0.3295000000000000    0.0538000000000002 # P1
  0.1230000000000002    0.4525000000000002    0.0538000000000002 # P2
  0.6705000000000000    0.1230000000000002    0.0538000000000002 # P3
  0.5475000000000002    0.6705000000000001    0.0538000000000002 # P4
  0.8769999999999998    0.5474999999999999    0.0538000000000002 # P5
  0.3295000000000002    0.8770000000000002    0.0538000000000002 # P6
  0.8770000000000000    0.3295000000000000    0.5537999999999998 # P7
  0.4525000000000001    0.1230000000000002    0.5537999999999998 # P8
  0.6704999999999999    0.5474999999999999    0.5537999999999998 # P9
  0.3295000000000002    0.4525000000000002    0.5537999999999998 # P10
  0.1230000000000001    0.6705000000000001    0.5537999999999998 # P11
  0.5475000000000000    0.8770000000000002    0.5537999999999998 # P12
  0.4564999999999999    0.3359000000000000    0.4264000000000002 # Al1
  0.1206000000000000    0.4565000000000002    0.4264000000000002 # Al2
  0.6641000000000000    0.1206000000000001    0.4264000000000002 # Al3
  0.5434999999999998    0.6641000000000000    0.4264000000000002 # Al4
  0.8794000000000001    0.5434999999999999    0.4264000000000002 # Al5
  0.3359000000000002    0.8794000000000003    0.4264000000000002 # Al6
  0.8794000000000001    0.3359000000000000    0.9264000000000000 # Al7
  0.4565000000000000    0.1206000000000001    0.9264000000000000 # Al8
  0.6640999999999999    0.5434999999999999    0.9264000000000000 # Al9
  0.3359000000000001    0.4565000000000002    0.9264000000000000 # Al10
  0.1206000000000000    0.6641000000000000    0.9264000000000000 # Al11
  0.5435000000000002    0.8794000000000003    0.9264000000000000 # Al12
  0.4199999999999998    0.2068999999999999    0.9979999999999997 # O1
  0.4519000000000001    0.3295000000000000    0.2245999999999999 # O2
  0.3610000000000001    0.3628999999999999    0.9919999999999998 # O3
  0.5736999999999998    0.4199000000000000    0.9869999999999999 # O4
  0.2130999999999999    0.4199999999999998    0.9979999999999997 # O5
  0.1224000000000001    0.4519000000000000    0.2245999999999999 # O6
  0.9981000000000000    0.3610000000000003    0.9919999999999998 # O7
  0.1538000000000000    0.5737000000000001    0.9869999999999999 # O8
  0.7930999999999999    0.2130999999999999    0.9979999999999997 # O9
  0.6705000000000000    0.1224000000000001    0.2245999999999999 # O10
  0.6371000000000002    0.9980999999999999    0.9919999999999998 # O11
  0.5801000000000001    0.1538000000000000    0.9869999999999999 # O12
  0.5800000000000002    0.7931000000000001    0.9979999999999997 # O13
  0.5481000000000000    0.6705000000000001    0.2245999999999999 # O14
  0.6390000000000003    0.6371000000000001    0.9919999999999998 # O15
  0.4263000000000002    0.5801000000000002    0.9869999999999999 # O16
  0.7868999999999999    0.5799999999999998    0.9979999999999997 # O17
  0.8776000000000000    0.5481000000000000    0.2245999999999999 # O18
  0.0019000000000000    0.6389999999999999    0.9919999999999998 # O19
  0.8462000000000001    0.4263000000000000    0.9869999999999999 # O20
  0.2069000000000001    0.7869000000000003    0.9979999999999997 # O21
  0.3295000000000001    0.8776000000000002    0.2245999999999999 # O22
  0.3629000000000002    0.0019000000000002    0.9919999999999998 # O23
  0.4198999999999999    0.8462000000000001    0.9869999999999999 # O24
  0.7868999999999999    0.2068999999999999    0.4979999999999999 # O25
  0.8776000000000002    0.3295000000000000    0.7246000000000001 # O26
  0.0019000000000000    0.3628999999999999    0.4920000000000002 # O27
  0.8462000000000001    0.4199000000000000    0.4869999999999996 # O28
  0.4199999999999999    0.2130999999999999    0.4979999999999999 # O29
  0.4519000000000000    0.1224000000000001    0.7246000000000001 # O30
  0.3610000000000001    0.9980999999999999    0.4920000000000002 # O31
  0.5736999999999999    0.1538000000000000    0.4869999999999996 # O32
  0.7931000000000002    0.5800000000000003    0.4979999999999999 # O33
  0.6705000000000002    0.5481000000000000    0.7246000000000001 # O34
  0.6371000000000003    0.6390000000000003    0.4920000000000002 # O35
  0.5801000000000001    0.4263000000000000    0.4869999999999996 # O36
  0.2068999999999998    0.4199999999999998    0.4979999999999999 # O37
  0.3295000000000002    0.4519000000000000    0.7246000000000001 # O38
  0.3628999999999999    0.3610000000000003    0.4920000000000002 # O39
  0.4198999999999999    0.5737000000000001    0.4869999999999996 # O40
  0.2131000000000001    0.7931000000000001    0.4979999999999999 # O41
  0.1223999999999999    0.6705000000000001    0.7246000000000001 # O42
  0.9981000000000000    0.6371000000000001    0.4920000000000002 # O43
  0.1538000000000001    0.5801000000000002    0.4869999999999996 # O44
  0.5799999999999998    0.7869000000000003    0.4979999999999999 # O45
  0.5481000000000000    0.8776000000000002    0.7246000000000001 # O46
  0.6390000000000000    0.0019000000000002    0.4920000000000002 # O47
  0.4263000000000002    0.8462000000000001    0.4869999999999996 # O48
