$cell vectors
1.0
  7.1099966544480102    0.0000000000000000    0.0000000000000000
 -3.5549983272240024    6.1574377235743452    0.0000000000000000
  0.0000000000000000    0.0000000000000000   19.2999909185438199
 12 18
Direct
  0.3330000000000001    0.0000000000000000    0.1379999999999998 # In1
 -0.0000000000000002    0.3330000000000000    0.1379999999999998 # In2
  0.3330000000000000    0.3330000000000000    0.9713333333333335 # In3
  0.6669999999999998    0.0000000000000000    0.9713333333333335 # In4
 -0.0000000000000002    0.3330000000000000    0.8046666666666666 # In5
  0.6670000000000000    0.6669999999999999    0.8046666666666666 # In6
  0.6669999999999998    0.0000000000000000    0.6380000000000001 # In7
  0.0000000000000002    0.6669999999999999    0.6380000000000001 # In8
  0.6670000000000000    0.6669999999999999    0.4713333333333333 # In9
  0.3330000000000001    0.0000000000000000    0.4713333333333333 # In10
  0.0000000000000002    0.6669999999999999    0.3046666666666666 # In11
  0.3330000000000000    0.3330000000000000    0.3046666666666666 # In12
  0.3330000000000001    0.0000000000000000    0.0000000000000000 # Se1
 -0.0000000000000002    0.3330000000000000    0.0000000000000000 # Se2
  0.6669999999999996    0.3330000000000000    0.0000000000000000 # Se3
  0.3330000000000000    0.3330000000000000    0.8333333333333335 # Se4
  0.6669999999999998    0.0000000000000000    0.8333333333333335 # Se5
  0.3339999999999999    0.6669999999999999    0.8333333333333335 # Se6
 -0.0000000000000002    0.3330000000000000    0.6666666666666667 # Se7
  0.6670000000000000    0.6669999999999999    0.6666666666666667 # Se8
  0.6670000000000003    0.3340000000000000    0.6666666666666667 # Se9
  0.6669999999999998    0.0000000000000000    0.4999999999999999 # Se10
  0.0000000000000002    0.6669999999999999    0.4999999999999999 # Se11
  0.3329999999999995    0.6669999999999999    0.4999999999999999 # Se12
  0.6670000000000000    0.6669999999999999    0.3333333333333332 # Se13
  0.3330000000000001    0.0000000000000000    0.3333333333333332 # Se14
  0.6660000000000001    0.3330000000000000    0.3333333333333332 # Se15
  0.0000000000000002    0.6669999999999999    0.1666666666666667 # Se16
  0.3330000000000000    0.3330000000000000    0.1666666666666667 # Se17
  0.3329999999999996    0.6659999999999999    0.1666666666666667 # Se18
