$cell vectors
1.0
 10.4817950678752645    0.0000000000000000    0.0000000000000000
 -5.2408975339376269    9.0775008060424121    0.0000000000000000
  0.0000000000000000    0.0000000000000000   11.1749947416957092
 12 12 48 12
Direct
  0.2491999999999999    0.0000000000000000    0.0000000000000000 # Si1
  0.2484999999999997    0.4970000000000000    0.0000000000000000 # Si2
  0.2492000000000000    0.2491999999999999    0.6666666666666667 # Si3
  0.7515000000000001    0.2484999999999997    0.6666666666666667 # Si4
  0.0000000000000001    0.2491999999999999    0.3333333333333334 # Si5
  0.5030000000000001    0.7515000000000004    0.3333333333333334 # Si6
  0.7508000000000001    0.0000000000000000    0.0000000000000000 # Si7
  0.7514999999999998    0.5030000000000000    0.0000000000000000 # Si8
  0.7507999999999999    0.7508000000000001    0.6666666666666667 # Si9
  0.2485000000000000    0.7515000000000004    0.6666666666666667 # Si10
 -0.0000000000000001    0.7508000000000001    0.3333333333333334 # Si11
  0.4970000000000000    0.2484999999999997    0.3333333333333334 # Si12
  0.2511000000000003    0.0000000000000000    0.4999999999999998 # Al1
  0.2511999999999996    0.5023999999999998    0.4999999999999998 # Al2
  0.2511000000000001    0.2511000000000002    0.1666666666666669 # Al3
  0.7488000000000005    0.2512000000000003    0.1666666666666669 # Al4
  0.0000000000000004    0.2511000000000002    0.8333333333333331 # Al5
  0.4976000000000001    0.7488000000000004    0.8333333333333331 # Al6
  0.7488999999999998    0.0000000000000000    0.5000000000000002 # Al7
  0.7487999999999998    0.4976000000000001    0.5000000000000002 # Al8
  0.7488999999999999    0.7488999999999998    0.1666666666666669 # Al9
  0.2512000000000000    0.7488000000000004    0.1666666666666669 # Al10
 -0.0000000000000004    0.7488999999999998    0.8333333333333331 # Al11
  0.5024000000000002    0.2512000000000003    0.8333333333333331 # Al12
  0.0866000000000001    0.1987000000000001    0.2424000000000001 # O1
  0.6036999999999999    0.7013000000000000    0.2621999999999998 # O2
  0.1051000000000000    0.7076000000000000    0.2625999999999999 # O3
  0.5917999999999999    0.2025999999999997    0.2499000000000000 # O4
  0.8879000000000004    0.0866000000000002    0.9090666666666667 # O5
  0.9024000000000001    0.6037000000000000    0.9288666666666668 # O6
  0.3975000000000002    0.1051000000000003    0.9292666666666667 # O7
  0.3892000000000000    0.5918000000000001    0.9165666666666668 # O8
  0.8013000000000001    0.8879000000000002    0.5757333333333333 # O9
  0.2986999999999996    0.9024000000000001    0.5955333333333331 # O10
  0.2924000000000001    0.3975000000000002    0.5959333333333333 # O11
  0.7973999999999999    0.3891999999999998    0.5832333333333334 # O12
  0.9133999999999998    0.8012999999999999    0.2424000000000001 # O13
  0.3963000000000001    0.2987000000000000    0.2621999999999998 # O14
  0.8949000000000000    0.2923999999999999    0.2625999999999999 # O15
  0.4082000000000001    0.7974000000000002    0.2499000000000000 # O16
  0.1120999999999999    0.9133999999999998    0.9090666666666667 # O17
  0.0976000000000000    0.3963000000000000    0.9288666666666668 # O18
  0.6025000000000003    0.8949000000000004    0.9292666666666667 # O19
  0.6108000000000001    0.4082000000000000    0.9165666666666668 # O20
  0.1987000000000000    0.1120999999999999    0.5757333333333333 # O21
  0.7013000000000000    0.0976000000000000    0.5955333333333331 # O22
  0.7076000000000000    0.6024999999999997    0.5959333333333333 # O23
  0.2026000000000002    0.6108000000000002    0.5832333333333334 # O24
  0.8878999999999999    0.8012999999999999    0.7576000000000001 # O25
  0.9024000000000002    0.2987000000000000    0.7377999999999999 # O26
  0.3974999999999997    0.2923999999999999    0.7374000000000003 # O27
  0.3891999999999998    0.7974000000000002    0.7501000000000001 # O28
  0.9133999999999998    0.1120999999999999    0.4242666666666667 # O29
  0.3963000000000000    0.0976000000000000    0.4044666666666669 # O30
  0.8948999999999999    0.6024999999999997    0.4040666666666669 # O31
  0.4081999999999999    0.6108000000000002    0.4167666666666668 # O32
  0.1987000000000000    0.0866000000000002    0.0909333333333333 # O33
  0.7012999999999998    0.6037000000000000    0.0711333333333331 # O34
  0.7075999999999997    0.1050999999999997    0.0707333333333335 # O35
  0.2026000000000001    0.5918000000000001    0.0834333333333334 # O36
  0.8012999999999995    0.9133999999999998    0.0909333333333333 # O37
  0.2986999999999996    0.3963000000000000    0.0711333333333331 # O38
  0.2923999999999998    0.8949000000000004    0.0707333333333335 # O39
  0.7973999999999999    0.4082000000000000    0.0834333333333334 # O40
  0.1121000000000003    0.1987000000000001    0.7576000000000001 # O41
  0.0975999999999998    0.7013000000000000    0.7377999999999999 # O42
  0.6024999999999997    0.7076000000000000    0.7374000000000003 # O43
  0.6108000000000000    0.2026000000000003    0.7501000000000001 # O44
  0.0865999999999998    0.8879000000000002    0.4242666666666667 # O45
  0.6037000000000001    0.9024000000000001    0.4044666666666669 # O46
  0.1051000000000002    0.3975000000000002    0.4040666666666669 # O47
  0.5917999999999997    0.3891999999999998    0.4167666666666668 # O48
  0.0000000000000000    0.0000000000000000    0.4999999999999998 # Li1
  0.5000000000000000    0.0000000000000000    0.0000000000000000 # Li2
  0.5000000000000000    0.0000000000000000    0.3240000000000001 # Li3
  0.0000000000000000    0.0000000000000000    0.1666666666666669 # Li4
  0.4999999999999998    0.5000000000000000    0.6666666666666667 # Li5
  0.4999999999999998    0.5000000000000000    0.9906666666666668 # Li6
  0.0000000000000000    0.0000000000000000    0.8333333333333331 # Li7
 -0.0000000000000002    0.5000000000000000    0.3333333333333334 # Li8
 -0.0000000000000002    0.5000000000000000    0.6573333333333334 # Li9
  0.5000000000000000    0.0000000000000000    0.6760000000000000 # Li10
  0.4999999999999998    0.5000000000000000    0.3426666666666666 # Li11
 -0.0000000000000002    0.5000000000000000    0.0093333333333333 # Li12
