$cell vectors
1.0
  6.3412970161534687    0.0000000000000000    0.0000000000000000
 -3.1706485080767317    5.4917243089313610    0.0000000000000000
  0.0000000000000000    0.0000000000000000    6.4621969592649675
 1 12 48
Direct
  0.0000000000000000    0.0000000000000000    0.0000000000000000 # Pb1
  0.6890000000000003    0.6340000000000007    0.4899999999999998 # S1
  0.0550000000000004    0.6890000000000006    0.4899999999999998 # S2
  0.3660000000000002    0.0549999999999999    0.4899999999999998 # S3
  0.3110000000000002    0.3660000000000003    0.4899999999999998 # S4
  0.9450000000000001    0.3110000000000005    0.4899999999999998 # S5
  0.6339999999999998    0.9450000000000002    0.4899999999999998 # S6
  0.0549999999999998    0.3660000000000003    0.5100000000000003 # S7
  0.3109999999999995    0.9450000000000002    0.5100000000000003 # S8
  0.6340000000000003    0.6890000000000006    0.5100000000000003 # S9
  0.3660000000000002    0.3110000000000005    0.5100000000000003 # S10
  0.9450000000000000    0.6340000000000007    0.5100000000000003 # S11
  0.6889999999999996    0.0549999999999999    0.5100000000000003 # S12
  0.7329999999999997    0.7949999999999999    0.6659999999999998 # O1
  0.6980000000000004    0.7410000000000007    0.2810000000000003 # O2
  0.8239999999999998    0.5030000000000002    0.4899999999999998 # O3
  0.1990000000000004    0.7440000000000004    0.8739999999999996 # O4
  0.9380000000000003    0.7330000000000003    0.6659999999999998 # O5
  0.9570000000000000    0.6980000000000006    0.2810000000000003 # O6
  0.3210000000000000    0.8240000000000002    0.4899999999999998 # O7
  0.4550000000000002    0.1990000000000006    0.8739999999999996 # O8
  0.2049999999999997    0.9380000000000004    0.6659999999999998 # O9
  0.2589999999999999    0.9570000000000008    0.2810000000000003 # O10
  0.4970000000000002    0.3210000000000001    0.4899999999999998 # O11
  0.2559999999999997    0.4550000000000002    0.8739999999999996 # O12
  0.2670000000000004    0.2050000000000000    0.6659999999999998 # O13
  0.3020000000000002    0.2590000000000003    0.2810000000000003 # O14
  0.1760000000000002    0.4969999999999999    0.4899999999999998 # O15
  0.8009999999999997    0.2559999999999997    0.8739999999999996 # O16
  0.0619999999999998    0.2669999999999998    0.6659999999999998 # O17
  0.0429999999999998    0.3020000000000004    0.2809999999999995 # O18
  0.6790000000000000    0.1759999999999997    0.4899999999999998 # O19
  0.5450000000000003    0.8010000000000003    0.8739999999999996 # O20
  0.7949999999999996    0.0619999999999998    0.6659999999999998 # O21
  0.7409999999999999    0.0430000000000001    0.2810000000000003 # O22
  0.5029999999999998    0.6790000000000000    0.4899999999999998 # O23
  0.7439999999999996    0.5449999999999997    0.8739999999999996 # O24
  0.9379999999999997    0.2050000000000000    0.3340000000000004 # O25
  0.9570000000000001    0.2590000000000003    0.7189999999999998 # O26
  0.3210000000000001    0.4969999999999999    0.5100000000000003 # O27
  0.4550000000000000    0.2559999999999997    0.1259999999999996 # O28
  0.2669999999999995    0.0619999999999998    0.3340000000000004 # O29
  0.3020000000000004    0.0430000000000001    0.7189999999999998 # O30
  0.1759999999999996    0.6790000000000000    0.5100000000000003 # O31
  0.8009999999999998    0.5449999999999997    0.1259999999999996 # O32
  0.7950000000000004    0.7330000000000003    0.3339999999999995 # O33
  0.7410000000000003    0.6980000000000006    0.7189999999999998 # O34
  0.5030000000000002    0.8240000000000002    0.5100000000000003 # O35
  0.7440000000000003    0.1990000000000006    0.1259999999999996 # O36
  0.2049999999999997    0.2669999999999998    0.3339999999999995 # O37
  0.2590000000000003    0.3020000000000004    0.7189999999999998 # O38
  0.4969999999999997    0.1759999999999997    0.5100000000000003 # O39
  0.2560000000000001    0.8010000000000003    0.1259999999999996 # O40
  0.0619999999999996    0.7949999999999999    0.3339999999999995 # O41
  0.0430000000000005    0.7410000000000007    0.7189999999999998 # O42
  0.6790000000000000    0.5030000000000002    0.5100000000000003 # O43
  0.5450000000000002    0.7440000000000004    0.1259999999999996 # O44
  0.7329999999999998    0.9380000000000004    0.3339999999999995 # O45
  0.6980000000000002    0.9570000000000008    0.7189999999999998 # O46
  0.8239999999999995    0.3210000000000001    0.5100000000000003 # O47
  0.1990000000000001    0.4550000000000002    0.1259999999999996 # O48
