POSCAR generated by cell class
1.0
 19.4999908244354607    0.0000000000000000    0.0000000000000000
 -9.7499954122177268   16.8874874275245688    0.0000000000000000
  0.0000000000000000    0.0000000000000000   10.2999951534197596
 84 52
Direct
  0.0000000000000000    0.0000000000000000    0.6770000000000002 # 11
  0.2650000000000000    0.0000000000000000    0.5990000000000000 # 12
  0.4220000000000000    0.8440000000000000    0.5540000000000002 # 13
  0.1450000000000000    0.0000000000000000    0.8040000000000002 # 14
  0.4290000000000000    0.0000000000000000    0.6420000000000000 # 15
  0.2870000000000000    0.5740000000000000    0.7210000000000000 # 16
  0.1450000000000000    0.2900000000000000    0.7610000000000000 # 17
  0.4280000000000000    0.1440000000000000    0.6810000000000002 # 18
  0.3333333333333333    0.6666666666666666    0.4840000000000000 # 19
  0.5000000000000000    0.0000000000000000    0.3940000000000001 # 110
  0.0830000000000000    0.1660000000000000    0.5720000000000000 # 111
  0.1620000000000000    0.3240000000000000    0.4900000000000000 # 112
  0.2500000000000000    0.5000000000000000    0.4620000000000000 # 113
  0.4150000000000000    0.0840000000000000    0.4190000000000000 # 114
  0.2650000000000000    0.2650000000000000    0.5990000000000000 # 115
  0.5780000000000000    0.4220000000000000    0.5540000000000002 # 116
  0.1450000000000000    0.1450000000000000    0.8040000000000002 # 117
  0.4290000000000000    0.4290000000000000    0.6420000000000000 # 118
  0.7130000000000000    0.2870000000000000    0.7210000000000000 # 119
  0.8550000000000000    0.1450000000000000    0.7610000000000000 # 120
  0.2840000000000000    0.4280000000000000    0.6810000000000002 # 121
  0.6666666666666666    0.3333333333333333    0.4840000000000000 # 122
  0.5000000000000000    0.5000000000000000    0.3940000000000001 # 123
  0.9169999999999999    0.0830000000000000    0.5720000000000000 # 124
  0.8380000000000000    0.1620000000000000    0.4900000000000000 # 125
  0.7500000000000000    0.2500000000000000    0.4620000000000000 # 126
  0.3310000000000000    0.4150000000000000    0.4190000000000000 # 127
  0.0000000000000000    0.2650000000000000    0.5990000000000000 # 128
  0.1560000000000000    0.5780000000000000    0.5540000000000002 # 129
  0.0000000000000000    0.1450000000000000    0.8040000000000002 # 130
  0.0000000000000000    0.4290000000000000    0.6420000000000000 # 131
  0.4260000000000000    0.7130000000000000    0.7210000000000000 # 132
  0.7100000000000000    0.8550000000000000    0.7610000000000000 # 133
  0.8560000000000000    0.2840000000000000    0.6810000000000002 # 134
  0.0000000000000000    0.5000000000000000    0.3940000000000001 # 135
  0.8340000000000000    0.9169999999999999    0.5720000000000000 # 136
  0.6760000000000002    0.8380000000000000    0.4900000000000000 # 137
  0.5000000000000000    0.7500000000000000    0.4620000000000000 # 138
  0.9159999999999999    0.3310000000000000    0.4190000000000000 # 139
  0.7350000000000000    0.0000000000000000    0.5990000000000000 # 140
  0.5780000000000000    0.1560000000000000    0.5540000000000002 # 141
  0.8550000000000000    0.0000000000000000    0.8040000000000002 # 142
  0.5710000000000000    0.0000000000000000    0.6420000000000000 # 143
  0.7130000000000000    0.4260000000000000    0.7210000000000000 # 144
  0.8550000000000000    0.7100000000000000    0.7610000000000000 # 145
  0.5720000000000000    0.8560000000000000    0.6810000000000002 # 146
  0.9169999999999999    0.8340000000000000    0.5720000000000000 # 147
  0.8380000000000000    0.6760000000000002    0.4900000000000000 # 148
  0.7500000000000000    0.5000000000000000    0.4620000000000000 # 149
  0.5850000000000000    0.9159999999999999    0.4190000000000000 # 150
  0.7350000000000000    0.7350000000000000    0.5990000000000000 # 151
  0.4220000000000000    0.5780000000000000    0.5540000000000002 # 152
  0.8550000000000000    0.8550000000000000    0.8040000000000002 # 153
  0.5710000000000000    0.5710000000000000    0.6420000000000000 # 154
  0.2870000000000000    0.7130000000000000    0.7210000000000000 # 155
  0.1450000000000000    0.8550000000000000    0.7610000000000000 # 156
  0.7160000000000000    0.5720000000000000    0.6810000000000002 # 157
  0.0830000000000000    0.9169999999999999    0.5720000000000000 # 158
  0.1620000000000000    0.8380000000000000    0.4900000000000000 # 159
  0.2500000000000000    0.7500000000000000    0.4620000000000000 # 160
  0.6690000000000002    0.5850000000000000    0.4190000000000000 # 161
  0.0000000000000000    0.7350000000000000    0.5990000000000000 # 162
  0.8440000000000000    0.4220000000000000    0.5540000000000002 # 163
  0.0000000000000000    0.8550000000000000    0.8040000000000002 # 164
  0.0000000000000000    0.5710000000000000    0.6420000000000000 # 165
  0.5740000000000000    0.2870000000000000    0.7210000000000000 # 166
  0.2900000000000000    0.1450000000000000    0.7610000000000000 # 167
  0.1440000000000000    0.7160000000000000    0.6810000000000002 # 168
  0.1660000000000000    0.0830000000000000    0.5720000000000000 # 169
  0.3240000000000000    0.1620000000000000    0.4900000000000000 # 170
  0.5000000000000000    0.2500000000000000    0.4620000000000000 # 171
  0.0840000000000000    0.6690000000000002    0.4190000000000000 # 172
  0.7160000000000000    0.1440000000000000    0.6810000000000002 # 173
  0.6690000000000002    0.0840000000000000    0.4190000000000000 # 174
  0.4280000000000000    0.2840000000000000    0.6810000000000002 # 175
  0.4150000000000000    0.3310000000000000    0.4190000000000000 # 176
  0.8560000000000000    0.5720000000000000    0.6810000000000002 # 177
  0.9159999999999999    0.5850000000000000    0.4190000000000000 # 178
  0.1440000000000000    0.4280000000000000    0.6810000000000002 # 179
  0.0840000000000000    0.4150000000000000    0.4190000000000000 # 180
  0.2840000000000000    0.8560000000000000    0.6810000000000002 # 181
  0.3310000000000000    0.9159999999999999    0.4190000000000000 # 182
  0.5720000000000000    0.7160000000000000    0.6810000000000002 # 183
  0.5850000000000000    0.6690000000000002    0.4190000000000000 # 184
  0.0000000000000000    0.0000000000000000    0.9399999999999999 # 21
  0.3333333333333333    0.6666666666666666    0.9399999999999999 # 22
  0.1130000000000000    0.2260000000000000    0.0110000000000000 # 23
  0.2220000000000000    0.4440000000000000    0.9090000000000000 # 24
  0.4330000000000000    0.8660000000000000    0.8169999999999999 # 25
  0.3200000000000000    0.0000000000000000    0.8440000000000000 # 26
  0.0000000000000000    0.0000000000000000    0.4200000000000000 # 27
  0.1980000000000000    0.3960000000000001    0.2480000000000000 # 28
  0.3950000000000001    0.7900000000000001    0.3000000000000000 # 29
  0.4040000000000001    0.0000000000000000    0.1860000000000000 # 210
  0.2020000000000000    0.0000000000000000    0.3670000000000000 # 211
  0.6666666666666666    0.3333333333333333    0.9399999999999999 # 212
  0.8870000000000000    0.1130000000000000    0.0110000000000000 # 213
  0.7780000000000000    0.2220000000000000    0.9090000000000000 # 214
  0.5669999999999999    0.4330000000000000    0.8169999999999999 # 215
  0.3200000000000000    0.3200000000000000    0.8440000000000000 # 216
  0.8020000000000002    0.1980000000000000    0.2480000000000000 # 217
  0.6050000000000000    0.3950000000000001    0.3000000000000000 # 218
  0.4040000000000001    0.4040000000000001    0.1860000000000000 # 219
  0.2020000000000000    0.2020000000000000    0.3670000000000000 # 220
  0.7740000000000000    0.8870000000000000    0.0110000000000000 # 221
  0.5560000000000002    0.7780000000000000    0.9090000000000000 # 222
  0.1340000000000000    0.5669999999999999    0.8169999999999999 # 223
  0.0000000000000000    0.3200000000000000    0.8440000000000000 # 224
  0.6040000000000000    0.8020000000000002    0.2480000000000000 # 225
  0.2100000000000000    0.6050000000000000    0.3000000000000000 # 226
  0.0000000000000000    0.4040000000000001    0.1860000000000000 # 227
  0.0000000000000000    0.2020000000000000    0.3670000000000000 # 228
  0.8870000000000000    0.7740000000000000    0.0110000000000000 # 229
  0.7780000000000000    0.5560000000000002    0.9090000000000000 # 230
  0.5669999999999999    0.1340000000000000    0.8169999999999999 # 231
  0.6800000000000002    0.0000000000000000    0.8440000000000000 # 232
  0.8020000000000002    0.6040000000000000    0.2480000000000000 # 233
  0.6050000000000000    0.2100000000000000    0.3000000000000000 # 234
  0.5960000000000000    0.0000000000000000    0.1860000000000000 # 235
  0.7980000000000002    0.0000000000000000    0.3670000000000000 # 236
  0.1130000000000000    0.8870000000000000    0.0110000000000000 # 237
  0.2220000000000000    0.7780000000000000    0.9090000000000000 # 238
  0.4330000000000000    0.5669999999999999    0.8169999999999999 # 239
  0.6800000000000002    0.6800000000000002    0.8440000000000000 # 240
  0.1980000000000000    0.8020000000000002    0.2480000000000000 # 241
  0.3950000000000001    0.6050000000000000    0.3000000000000000 # 242
  0.5960000000000000    0.5960000000000000    0.1860000000000000 # 243
  0.7980000000000002    0.7980000000000002    0.3670000000000000 # 244
  0.2260000000000000    0.1130000000000000    0.0110000000000000 # 245
  0.4440000000000000    0.2220000000000000    0.9090000000000000 # 246
  0.8660000000000000    0.4330000000000000    0.8169999999999999 # 247
  0.0000000000000000    0.6800000000000002    0.8440000000000000 # 248
  0.3960000000000001    0.1980000000000000    0.2480000000000000 # 249
  0.7900000000000001    0.3950000000000001    0.3000000000000000 # 250
  0.0000000000000000    0.5960000000000000    0.1860000000000000 # 251
  0.0000000000000000    0.7980000000000002    0.3670000000000000 # 252
