Achtung: Title of Simulation            
   1.00000000000000     
     5.3271448991819241    0.0000000012333532    0.0000229819805352
     0.0000000011167501    5.1761818976290614   -0.0000000066773809
    -2.7078325907876550   -0.0000000127922121   14.9446074192090581
   Cl   C    N 
    10    10     2
Direct
  0.1160024502651523  0.6675764360867843  0.3317276907988507
  0.5344821537945116  0.0994603414955016  0.3234699277166814
  0.9631761050403089  0.1774005986313610  0.4920126981392658
  0.9673185714211312  0.8261042138471093  0.6606384721872102
  0.5303120593264280  0.4059115058077509  0.6541972258198763
  0.1160024488448494  0.3324235640839787  0.8317276902687398
  0.5344821564111029  0.9005396573285579  0.8234699257068477
  0.9631761037157293  0.8225993995161029  0.9920127022505609
  0.9673185670350342  0.1738957852849725  0.1606384754468834
  0.5303120559127734  0.5940884966364486  0.1541972253420286
  0.3583430961522991  0.7205110707603626  0.4211309960650972
  0.5419890949209973  0.9126997478438056  0.4165595754999049
  0.5416224929405917  0.6059379943918155  0.5641851388269851
  0.7345867525730830  0.9474816265346476  0.4921544554845617
  0.7365019551152270  0.7908220579468308  0.5681169890803970
  0.3583431041100325  0.2794889283926852  0.9211309944894434
  0.5419890951995699  0.0873002564278116  0.9165595753734863
  0.5416224924101161  0.3940620021736796  0.0641851378765044
  0.7345867525372206  0.0525183733885521  0.9921544551616646
  0.7365019478624329  0.2091779424670627  0.0681169908950160
  0.3607648057538337  0.5740985945780599  0.4929070627726560
  0.3607648104083847  0.4259014063761192  0.9929070614479316
 
  0.00000000E+00  0.00000000E+00  0.00000000E+00
  0.00000000E+00  0.00000000E+00  0.00000000E+00
  0.00000000E+00  0.00000000E+00  0.00000000E+00
  0.00000000E+00  0.00000000E+00  0.00000000E+00
  0.00000000E+00  0.00000000E+00  0.00000000E+00
  0.00000000E+00  0.00000000E+00  0.00000000E+00
  0.00000000E+00  0.00000000E+00  0.00000000E+00
  0.00000000E+00  0.00000000E+00  0.00000000E+00
  0.00000000E+00  0.00000000E+00  0.00000000E+00
  0.00000000E+00  0.00000000E+00  0.00000000E+00
  0.00000000E+00  0.00000000E+00  0.00000000E+00
  0.00000000E+00  0.00000000E+00  0.00000000E+00
  0.00000000E+00  0.00000000E+00  0.00000000E+00
  0.00000000E+00  0.00000000E+00  0.00000000E+00
  0.00000000E+00  0.00000000E+00  0.00000000E+00
  0.00000000E+00  0.00000000E+00  0.00000000E+00
  0.00000000E+00  0.00000000E+00  0.00000000E+00
  0.00000000E+00  0.00000000E+00  0.00000000E+00
  0.00000000E+00  0.00000000E+00  0.00000000E+00
  0.00000000E+00  0.00000000E+00  0.00000000E+00
  0.00000000E+00  0.00000000E+00  0.00000000E+00
  0.00000000E+00  0.00000000E+00  0.00000000E+00
