                                        
   1.00000000000000     
    10.1690239578638479   -0.0002129353726352   -0.0028901949007707
    -0.0001941541417016    9.2004450467216579    0.0003822231650628
    -3.4905010434135195    0.0003924159888142    7.6826686036015523
   H    C    O    Mg
    20     8    36    10
Direct
  0.2369695403745056  0.8796570343916746  0.1220466390213004
  0.1460081516286692  0.6279206145577991  0.3012528191385458
  0.3020707888310212  0.6895336207223560  0.3522360609627817
  0.1376560203681291  0.9000875277630468  0.3648634878709628
  0.2344927284213459  0.9192861507013872  0.5714180500282896
  0.7630215135304459  0.3796873536279466  0.3780146696056637
  0.8539799797876897  0.1279440099042206  0.1986448861564852
  0.6979393349478140  0.1895708965206681  0.1477071231044202
  0.8623221824033500  0.4000724572124935  0.1351878654277225
  0.7655089427181051  0.4192768632056180  0.9286384169177847
  0.7630509700624712  0.1203224112884616  0.8779851358726621
  0.8539889867864298  0.3720733496729696  0.6987341542556891
  0.6979135744476254  0.3104791942745495  0.6477325582988537
  0.8623255229642682  0.0999160595150815  0.6351337839251343
  0.7654974337241747  0.0807422738372639  0.4285785100519007
  0.2369468088668596  0.6202991910946546  0.6219647692406205
  0.1460297219833507  0.8720629501997339  0.8013532903577241
  0.3020699528724605  0.8104411038488708  0.8522759752223483
  0.1376642834974728  0.5999021007705893  0.8647693990679179
  0.2344840146576294  0.5807043050604856  0.0713327516000129
  0.0784254418812693  0.2589810582898873  0.2801442582817170
  0.4719849873715450  0.3330150547335733  0.2369513489185429
  0.9215565626534349  0.7590008491896735  0.2198397138694608
  0.5280394939954786  0.8330242064600384  0.2630923775542267
  0.9215787907280985  0.7410095860497020  0.7198711578916703
  0.5280160628931279  0.6669997281674612  0.7630523013222887
  0.0784363233439196  0.2409994171113941  0.7801577111183285
  0.4719778538234156  0.1669881190149927  0.7369339355886112
  0.2255693338445911  0.9843949936733200  0.1168768444175677
  0.2423069482611163  0.6050260520109643  0.2969439264947515
  0.2368608667161138  0.9230575861654895  0.4560924102361716
  0.0050670565651578  0.1589235172534416  0.1746662102469511
  0.0109240551602168  0.3651262578183812  0.3112933301586745
  0.2194550960505369  0.2543604124563792  0.3542446628293538
  0.4287892188252385  0.2001026197813134  0.2160993543344539
  0.4930287730228167  0.4011817799597097  0.3802982617051686
  0.4968936525545333  0.3977868930044333  0.1156490777050566
  0.7744448319013630  0.4844229617787578  0.3831820542676185
  0.7576955354522666  0.1050365752169294  0.2029612542492606
  0.7631423830753400  0.4230876015928557  0.0439603565017730
  0.9949472695101019  0.6588255330889101  0.3251286525594902
  0.9889873262997437  0.8652989591957589  0.1888188281649182
  0.7805127437785051  0.7543571649155147  0.1457573156039552
  0.5712188711751147  0.7000989174676174  0.2839643776637303
  0.5070103164772212  0.9012030025688045  0.1197470492758861
  0.5031187541394931  0.8977934064175418  0.3843704602388032
  0.7744465523026087  0.0155858838085550  0.8831322956125942
  0.7576876157818963  0.3949772982631911  0.7030409300930288
  0.7631199283951938  0.0769652014864669  0.5439003738309078
  0.9949651899904158  0.8410608009680339  0.8253374586552075
  0.9890448640679425  0.6348564131000073  0.6886692032800047
  0.7805406044925759  0.7456180158632680  0.6458075175087148
  0.5712180628904667  0.7999170117151162  0.7839313144921344
  0.5069420683380805  0.5988471754591653  0.6196842535821042
  0.5031205073630907  0.6022054320823453  0.8843533214193233
  0.2255355905016264  0.5155611550111683  0.6168101597402583
  0.2423197761941039  0.8949838031965442  0.7970421054126242
  0.2368536179744893  0.5768959927799251  0.9560082332559422
  0.0050312499206265  0.3411482732215125  0.6748533403606731
  0.0110231609889523  0.1346899877670442  0.8111807067351016
  0.2194723133109284  0.2456565687252062  0.8542666098268182
  0.4287938737324181  0.2999113751954019  0.7160761608016590
  0.4930267057823113  0.0987964821078830  0.8802764470013432
  0.4968817221647458  0.1022228894657684  0.6156468864065613
  0.3447380093628174  0.0692746367699491  0.3601824852925175
  0.3444207822799885  0.4314392904725426  0.4909529175684444
  0.6552473005107869  0.5692840291734583  0.1398384613684481
  0.6555940298669447  0.9314430725873234  0.0090371614429203
  0.6552492946659036  0.9307337661369779  0.6398221882310424
  0.6555903928094484  0.5685701375343235  0.5090696864648656
  0.3447668638352229  0.4307223765716059  0.8601731566742011
  0.3444287105095505  0.0685616027145769  0.9909846497994341
  0.0000099716778665 -0.0000082135235288 -0.0000028461502999
 -0.0000078960845501  0.4999878427934694  0.4999871629681625
 
  0.00000000E+00  0.00000000E+00  0.00000000E+00
  0.00000000E+00  0.00000000E+00  0.00000000E+00
  0.00000000E+00  0.00000000E+00  0.00000000E+00
  0.00000000E+00  0.00000000E+00  0.00000000E+00
  0.00000000E+00  0.00000000E+00  0.00000000E+00
  0.00000000E+00  0.00000000E+00  0.00000000E+00
  0.00000000E+00  0.00000000E+00  0.00000000E+00
  0.00000000E+00  0.00000000E+00  0.00000000E+00
  0.00000000E+00  0.00000000E+00  0.00000000E+00
  0.00000000E+00  0.00000000E+00  0.00000000E+00
  0.00000000E+00  0.00000000E+00  0.00000000E+00
  0.00000000E+00  0.00000000E+00  0.00000000E+00
  0.00000000E+00  0.00000000E+00  0.00000000E+00
  0.00000000E+00  0.00000000E+00  0.00000000E+00
  0.00000000E+00  0.00000000E+00  0.00000000E+00
  0.00000000E+00  0.00000000E+00  0.00000000E+00
  0.00000000E+00  0.00000000E+00  0.00000000E+00
  0.00000000E+00  0.00000000E+00  0.00000000E+00
  0.00000000E+00  0.00000000E+00  0.00000000E+00
  0.00000000E+00  0.00000000E+00  0.00000000E+00
  0.00000000E+00  0.00000000E+00  0.00000000E+00
  0.00000000E+00  0.00000000E+00  0.00000000E+00
  0.00000000E+00  0.00000000E+00  0.00000000E+00
  0.00000000E+00  0.00000000E+00  0.00000000E+00
  0.00000000E+00  0.00000000E+00  0.00000000E+00
  0.00000000E+00  0.00000000E+00  0.00000000E+00
  0.00000000E+00  0.00000000E+00  0.00000000E+00
  0.00000000E+00  0.00000000E+00  0.00000000E+00
  0.00000000E+00  0.00000000E+00  0.00000000E+00
  0.00000000E+00  0.00000000E+00  0.00000000E+00
  0.00000000E+00  0.00000000E+00  0.00000000E+00
  0.00000000E+00  0.00000000E+00  0.00000000E+00
  0.00000000E+00  0.00000000E+00  0.00000000E+00
  0.00000000E+00  0.00000000E+00  0.00000000E+00
  0.00000000E+00  0.00000000E+00  0.00000000E+00
  0.00000000E+00  0.00000000E+00  0.00000000E+00
  0.00000000E+00  0.00000000E+00  0.00000000E+00
  0.00000000E+00  0.00000000E+00  0.00000000E+00
  0.00000000E+00  0.00000000E+00  0.00000000E+00
  0.00000000E+00  0.00000000E+00  0.00000000E+00
  0.00000000E+00  0.00000000E+00  0.00000000E+00
  0.00000000E+00  0.00000000E+00  0.00000000E+00
  0.00000000E+00  0.00000000E+00  0.00000000E+00
  0.00000000E+00  0.00000000E+00  0.00000000E+00
  0.00000000E+00  0.00000000E+00  0.00000000E+00
  0.00000000E+00  0.00000000E+00  0.00000000E+00
  0.00000000E+00  0.00000000E+00  0.00000000E+00
  0.00000000E+00  0.00000000E+00  0.00000000E+00
  0.00000000E+00  0.00000000E+00  0.00000000E+00
  0.00000000E+00  0.00000000E+00  0.00000000E+00
  0.00000000E+00  0.00000000E+00  0.00000000E+00
  0.00000000E+00  0.00000000E+00  0.00000000E+00
  0.00000000E+00  0.00000000E+00  0.00000000E+00
  0.00000000E+00  0.00000000E+00  0.00000000E+00
  0.00000000E+00  0.00000000E+00  0.00000000E+00
  0.00000000E+00  0.00000000E+00  0.00000000E+00
  0.00000000E+00  0.00000000E+00  0.00000000E+00
  0.00000000E+00  0.00000000E+00  0.00000000E+00
  0.00000000E+00  0.00000000E+00  0.00000000E+00
  0.00000000E+00  0.00000000E+00  0.00000000E+00
  0.00000000E+00  0.00000000E+00  0.00000000E+00
  0.00000000E+00  0.00000000E+00  0.00000000E+00
  0.00000000E+00  0.00000000E+00  0.00000000E+00
  0.00000000E+00  0.00000000E+00  0.00000000E+00
  0.00000000E+00  0.00000000E+00  0.00000000E+00
  0.00000000E+00  0.00000000E+00  0.00000000E+00
  0.00000000E+00  0.00000000E+00  0.00000000E+00
  0.00000000E+00  0.00000000E+00  0.00000000E+00
  0.00000000E+00  0.00000000E+00  0.00000000E+00
  0.00000000E+00  0.00000000E+00  0.00000000E+00
  0.00000000E+00  0.00000000E+00  0.00000000E+00
  0.00000000E+00  0.00000000E+00  0.00000000E+00
  0.00000000E+00  0.00000000E+00  0.00000000E+00
  0.00000000E+00  0.00000000E+00  0.00000000E+00
