POSCAR generated by cell class
1.0
  9.8849953486945896    0.0000000000000000    0.0000000000000000
 -4.9424976743472930    8.5606570882605304    0.0000000000000000
  0.0000000000000000    0.0000000000000000   10.8049949157961596
 16 8 42
Direct
  0.3333333333333333    0.6666666666666666    0.3831000000000000 # 11
  0.2420000000000000    0.0000000000000000    0.2321000000000000 # 12
  0.6028000000000000    0.0000000000000000    0.0930000000000000 # 13
  0.6666666666666666    0.3333333333333333    0.8831000000000000 # 14
  0.2420000000000000    0.2420000000000000    0.7321000000000000 # 15
  0.6028000000000000    0.6028000000000000    0.5930000000000000 # 16
  0.0000000000000000    0.2420000000000000    0.2321000000000000 # 17
  0.0000000000000000    0.6028000000000000    0.0930000000000000 # 18
  0.7580000000000000    0.0000000000000000    0.7321000000000000 # 19
  0.3972000000000000    0.0000000000000000    0.5930000000000000 # 110
  0.7580000000000000    0.7580000000000000    0.2321000000000000 # 111
  0.3972000000000000    0.3972000000000000    0.0930000000000000 # 112
  0.0000000000000000    0.7580000000000000    0.7321000000000000 # 113
  0.0000000000000000    0.3972000000000000    0.5930000000000000 # 114
  0.3333333333333333    0.6666666666666666    0.8831000000000000 # 115
  0.6666666666666666    0.3333333333333333    0.3831000000000000 # 116
  0.0000000000000000    0.0000000000000000    0.0000000000000000 # 21
  0.6449000000000000    0.0000000000000000    0.4017000000000000 # 22
  0.0000000000000000    0.0000000000000000    0.5000000000000000 # 23
  0.6449000000000000    0.6449000000000000    0.9016999999999999 # 24
  0.0000000000000000    0.6449000000000000    0.4017000000000000 # 25
  0.3551000000000001    0.0000000000000000    0.9016999999999999 # 26
  0.3551000000000001    0.3551000000000001    0.4017000000000000 # 27
  0.0000000000000000    0.3551000000000001    0.9016999999999999 # 28
  0.8404000000000001    0.0000000000000000    0.3854000000000001 # 31
  0.8457000000000000    0.0000000000000000    0.1081000000000000 # 32
  0.4364000000000000    0.2730000000000001    0.2700000000000000 # 33
  0.5461000000000000    0.7019000000000000    0.0348000000000001 # 34
  0.4415000000000000    0.0000000000000000    0.3754000000000000 # 35
  0.8404000000000001    0.8404000000000001    0.8854000000000000 # 36
  0.8457000000000000    0.8457000000000000    0.6081000000000000 # 37
  0.1634000000000000    0.4364000000000000    0.7700000000000000 # 38
  0.8442000000000000    0.5461000000000000    0.5347999999999999 # 39
  0.4415000000000000    0.4415000000000000    0.8754000000000000 # 310
  0.0000000000000000    0.8404000000000001    0.3854000000000001 # 311
  0.0000000000000000    0.8457000000000000    0.1081000000000000 # 312
  0.7270000000000000    0.1634000000000000    0.2700000000000000 # 313
  0.2981000000000000    0.8442000000000000    0.0348000000000001 # 314
  0.0000000000000000    0.4415000000000000    0.3754000000000000 # 315
  0.1596000000000000    0.0000000000000000    0.8854000000000000 # 316
  0.1543000000000000    0.0000000000000000    0.6081000000000000 # 317
  0.5636000000000000    0.7270000000000000    0.7700000000000000 # 318
  0.4539000000000000    0.2981000000000000    0.5347999999999999 # 319
  0.5585000000000000    0.0000000000000000    0.8754000000000000 # 320
  0.1596000000000000    0.1596000000000000    0.3854000000000001 # 321
  0.1543000000000000    0.1543000000000000    0.1081000000000000 # 322
  0.8366000000000000    0.5636000000000000    0.2700000000000000 # 323
  0.1558000000000000    0.4539000000000000    0.0348000000000001 # 324
  0.5585000000000000    0.5585000000000000    0.3754000000000000 # 325
  0.0000000000000000    0.1596000000000000    0.8854000000000000 # 326
  0.0000000000000000    0.1543000000000000    0.6081000000000000 # 327
  0.2730000000000001    0.8366000000000000    0.7700000000000000 # 328
  0.7019000000000000    0.1558000000000000    0.5347999999999999 # 329
  0.0000000000000000    0.5585000000000000    0.8754000000000000 # 330
  0.8366000000000000    0.2730000000000001    0.7700000000000000 # 331
  0.1558000000000000    0.7019000000000000    0.5347999999999999 # 332
  0.4364000000000000    0.1634000000000000    0.7700000000000000 # 333
  0.5461000000000000    0.8442000000000000    0.5347999999999999 # 334
  0.7270000000000000    0.5636000000000000    0.7700000000000000 # 335
  0.2981000000000000    0.4539000000000000    0.5347999999999999 # 336
  0.2730000000000001    0.4364000000000000    0.2700000000000000 # 337
  0.7019000000000000    0.5461000000000000    0.0348000000000001 # 338
  0.1634000000000000    0.7270000000000000    0.2700000000000000 # 339
  0.8442000000000000    0.2981000000000000    0.0348000000000001 # 340
  0.5636000000000000    0.8366000000000000    0.2700000000000000 # 341
  0.4539000000000000    0.1558000000000000    0.0348000000000001 # 342
