POSCAR generated by cell class
1.0
  4.5960978373429686    0.0000000000000000    0.0000000000000000
 -2.2980489186714834    3.9803374854177300    0.0000000000000000
  0.0000000000000000    0.0000000000000000    8.9299957980619808
 2 6 8
Direct
  0.3333333333333333    0.6666666666666666    0.2500000000000000 # 11
  0.6666666666666666    0.3333333333333333    0.7500000000000000 # 12
  0.3333333333333333    0.6666666666666666    0.5707000000000000 # 21
  0.0000000000000000    0.0000000000000000    0.0000000000000000 # 22
  0.3333333333333333    0.6666666666666666    0.9293000000000000 # 23
  0.0000000000000000    0.0000000000000000    0.5000000000000000 # 24
  0.6666666666666666    0.3333333333333333    0.4293000000000000 # 25
  0.6666666666666666    0.3333333333333333    0.0707000000000000 # 26
  0.6666666666666666    0.3333333333333333    0.2500000000000000 # 31
  0.6670000000000001    0.0000000000000000    0.0000000000000000 # 32
  0.3330000000000001    0.3330000000000001    0.5000000000000000 # 33
  0.0000000000000000    0.6670000000000001    0.0000000000000000 # 34
  0.6670000000000001    0.0000000000000000    0.5000000000000000 # 35
  0.3330000000000001    0.3330000000000001    0.0000000000000000 # 36
  0.0000000000000000    0.6670000000000001    0.5000000000000000 # 37
  0.3333333333333333    0.6666666666666666    0.7500000000000000 # 38
