$cell vectors
1.0
  9.8179953802208928    0.0000000000000000    0.0000000000000000
  0.0000000000000000    9.8179953802208928    0.0000000000000000
  0.0000000000000000    0.0000000000000000    9.8179953802208928
 12 12 16
Direct
  0.3749999999999999    0.0000000000000000    0.2500000000000001 # Y1
  0.8750000000000002    0.5000000000000002    0.7499999999999999 # Y2
  0.2500000000000001    0.3749999999999999    0.0000000000000000 # Y3
  0.7499999999999999    0.8750000000000002    0.4999999999999998 # Y4
  0.6249999999999999    0.4999999999999998    0.2500000000000001 # Y5
  0.1249999999999998    0.0000000000000000    0.7499999999999999 # Y6
  0.2500000000000001    0.6249999999999999    0.4999999999999998 # Y7
  0.7499999999999999    0.1249999999999998    0.0000000000000000 # Y8
  0.4999999999999998    0.2500000000000001    0.6249999999999999 # Y9
  0.0000000000000000    0.7499999999999999    0.1249999999999998 # Y10
  0.5000000000000002    0.7499999999999999    0.8750000000000002 # Y11
  0.0000000000000000    0.2500000000000001    0.3749999999999999 # Y12
  0.8750000000000002    0.0000000000000000    0.2500000000000001 # Au1
  0.3749999999999999    0.5000000000000002    0.7499999999999999 # Au2
  0.2500000000000001    0.8750000000000002    0.0000000000000000 # Au3
  0.7499999999999999    0.3749999999999999    0.4999999999999998 # Au4
  0.1249999999999998    0.4999999999999998    0.2500000000000001 # Au5
  0.6249999999999999    0.0000000000000000    0.7499999999999999 # Au6
  0.2500000000000001    0.1249999999999998    0.4999999999999998 # Au7
  0.7499999999999999    0.6249999999999999    0.0000000000000000 # Au8
  0.4999999999999998    0.2500000000000001    0.1249999999999998 # Au9
  0.0000000000000000    0.7499999999999999    0.6249999999999999 # Au10
  0.5000000000000002    0.7499999999999999    0.3749999999999999 # Au11
  0.0000000000000000    0.2500000000000001    0.8749999999999997 # Au12
  0.0879999999999999    0.0879999999999999    0.0879999999999999 # Sb1
  0.5880000000000001    0.5880000000000001    0.5880000000000001 # Sb2
  0.3380000000000000    0.6619999999999999    0.1619999999999997 # Sb3
  0.8379999999999997    0.1620000000000003    0.6619999999999999 # Sb4
  0.9120000000000001    0.4119999999999999    0.0879999999999999 # Sb5
  0.4119999999999999    0.9120000000000001    0.5880000000000001 # Sb6
  0.1620000000000003    0.3380000000000000    0.6619999999999999 # Sb7
  0.6619999999999999    0.8379999999999997    0.1619999999999997 # Sb8
  0.0879999999999999    0.9120000000000001    0.4119999999999999 # Sb9
  0.5880000000000001    0.4119999999999999    0.9120000000000001 # Sb10
  0.6619999999999999    0.1620000000000003    0.3380000000000000 # Sb11
  0.1620000000000003    0.6619999999999999    0.8379999999999997 # Sb12
  0.4119999999999999    0.0879999999999999    0.9120000000000001 # Sb13
  0.9120000000000001    0.5880000000000001    0.4119999999999999 # Sb14
  0.3380000000000000    0.3380000000000000    0.3380000000000000 # Sb15
  0.8379999999999997    0.8380000000000003    0.8379999999999997 # Sb16
