$cell vectors
1.0
  7.4229965071684347    0.0000000000000000    0.0000000000000000
  0.0000000000000000    7.4229965071684347    0.0000000000000000
  0.0000000000000000    0.0000000000000000    7.4229965071684347
 4 312 192
Direct
  0.0000000000000000    0.0000000000000000    0.0000000000000000 # P1
  0.0000000000000000    0.4999999999999996    0.4999999999999996 # P2
  0.4999999999999996    0.0000000000000000    0.4999999999999996 # P3
  0.4999999999999996    0.4999999999999996    0.0000000000000000 # P4
  0.0000000000000000    0.0000000000000000    0.7889999999999996 # O1
  0.8169999999999996    0.0749000000000001    0.0684000000000000 # O2
  0.0276000000000000    0.8039999999999996    0.0685999999999997 # O3
  0.1575999999999996    0.1216000000000002    0.0683000000000001 # O4
  0.0000000000000000    0.4999999999999996    0.2889999999999999 # O5
  0.8169999999999996    0.5748999999999996    0.5684000000000003 # O6
  0.0276000000000000    0.3039999999999999    0.5686000000000000 # O7
  0.1576000000000004    0.6215999999999999    0.5682999999999998 # O8
  0.4999999999999996    0.0000000000000000    0.2889999999999999 # O9
  0.3170000000000001    0.0749000000000001    0.5684000000000003 # O10
  0.5275999999999996    0.8039999999999996    0.5686000000000000 # O11
  0.6575999999999999    0.1216000000000002    0.5682999999999998 # O12
  0.5000000000000003    0.4999999999999996    0.7889999999999996 # O13
  0.3170000000000001    0.5748999999999996    0.0684000000000000 # O14
  0.5275999999999996    0.3039999999999999    0.0685999999999997 # O15
  0.6575999999999999    0.6215999999999999    0.0683000000000001 # O16
  0.9250999999999998    0.8169999999999996    0.0684000000000000 # O17
  0.1959999999999996    0.0276000000000000    0.0685999999999997 # O18
  0.8783999999999997    0.1575999999999996    0.0683000000000001 # O19
  0.9250999999999998    0.3170000000000001    0.5684000000000003 # O20
  0.1960000000000003    0.5275999999999996    0.5686000000000000 # O21
  0.8783999999999997    0.6575999999999999    0.5682999999999998 # O22
  0.4251000000000002    0.8169999999999996    0.5684000000000003 # O23
  0.6959999999999998    0.0276000000000000    0.5686000000000000 # O24
  0.3784000000000000    0.1576000000000004    0.5682999999999998 # O25
  0.4250999999999995    0.3170000000000001    0.0684000000000000 # O26
  0.6959999999999998    0.5275999999999996    0.0685999999999997 # O27
  0.3784000000000000    0.6575999999999999    0.0683000000000001 # O28
  0.1830000000000002    0.9250999999999998    0.0684000000000000 # O29
  0.9723999999999998    0.1959999999999996    0.0685999999999997 # O30
  0.8423999999999995    0.8783999999999997    0.0683000000000001 # O31
  0.1830000000000002    0.4251000000000002    0.5684000000000003 # O32
  0.9723999999999998    0.6959999999999998    0.5686000000000000 # O33
  0.8423999999999995    0.3784000000000000    0.5682999999999998 # O34
  0.6829999999999998    0.9250999999999998    0.5684000000000003 # O35
  0.4724000000000002    0.1960000000000003    0.5686000000000000 # O36
  0.3424000000000000    0.8783999999999997    0.5682999999999998 # O37
  0.6829999999999998    0.4250999999999995    0.0684000000000000 # O38
  0.4724000000000002    0.6959999999999998    0.0685999999999997 # O39
  0.3424000000000000    0.3784000000000000    0.0683000000000001 # O40
  0.0749000000000001    0.1830000000000002    0.0684000000000000 # O41
  0.8039999999999996    0.9723999999999998    0.0685999999999997 # O42
  0.1216000000000002    0.8423999999999995    0.0683000000000001 # O43
  0.0749000000000001    0.6829999999999998    0.5684000000000003 # O44
  0.8039999999999996    0.4724000000000002    0.5686000000000000 # O45
  0.1216000000000002    0.3424000000000000    0.5682999999999998 # O46
  0.5748999999999996    0.1830000000000002    0.5684000000000003 # O47
  0.3039999999999999    0.9723999999999998    0.5686000000000000 # O48
  0.6215999999999999    0.8424000000000004    0.5682999999999998 # O49
  0.5748999999999996    0.6829999999999998    0.0684000000000000 # O50
  0.3039999999999999    0.4723999999999995    0.0685999999999997 # O51
  0.6215999999999999    0.3424000000000000    0.0683000000000001 # O52
  0.0000000000000000    0.2109999999999996    0.0000000000000000 # O53
  0.8169999999999996    0.9315999999999998    0.0749000000000001 # O54
  0.0276000000000000    0.9314000000000001    0.8039999999999996 # O55
  0.1576000000000004    0.9316999999999996    0.1216000000000002 # O56
  0.0000000000000000    0.7110000000000000    0.4999999999999996 # O57
  0.8169999999999996    0.4315999999999996    0.5748999999999996 # O58
  0.0276000000000000    0.4313999999999999    0.3039999999999999 # O59
  0.1576000000000004    0.4317000000000002    0.6215999999999999 # O60
  0.4999999999999996    0.2110000000000003    0.4999999999999996 # O61
  0.3170000000000001    0.9315999999999998    0.5748999999999996 # O62
  0.5275999999999996    0.9313999999999995    0.3039999999999999 # O63
  0.6575999999999999    0.9316999999999996    0.6215999999999999 # O64
  0.4999999999999996    0.7110000000000000    0.0000000000000000 # O65
  0.3170000000000001    0.4315999999999996    0.0749000000000001 # O66
  0.5275999999999996    0.4313999999999999    0.8039999999999996 # O67
  0.6575999999999999    0.4317000000000002    0.1216000000000002 # O68
  0.0000000000000000    0.0000000000000000    0.2109999999999996 # O69
  0.8169999999999996    0.9250999999999998    0.9315999999999998 # O70
  0.0276000000000000    0.1960000000000003    0.9313999999999995 # O71
  0.1576000000000004    0.8783999999999997    0.9316999999999996 # O72
  0.0000000000000000    0.4999999999999996    0.7110000000000000 # O73
  0.8169999999999996    0.4251000000000002    0.4315999999999996 # O74
  0.0276000000000000    0.6959999999999998    0.4313999999999999 # O75
  0.1576000000000004    0.3784000000000000    0.4317000000000002 # O76
  0.4999999999999996    0.0000000000000000    0.7110000000000000 # O77
  0.3170000000000001    0.9250999999999998    0.4315999999999996 # O78
  0.5275999999999996    0.1960000000000003    0.4313999999999999 # O79
  0.6575999999999999    0.8783999999999997    0.4317000000000002 # O80
  0.4999999999999996    0.4999999999999996    0.2109999999999996 # O81
  0.3170000000000001    0.4251000000000002    0.9315999999999998 # O82
  0.5275999999999996    0.6959999999999998    0.9313999999999995 # O83
  0.6575999999999999    0.3784000000000000    0.9316999999999996 # O84
  0.0000000000000000    0.7889999999999996    0.0000000000000000 # O85
  0.8169999999999996    0.0684000000000000    0.9250999999999998 # O86
  0.0276000000000000    0.0685999999999997    0.1959999999999996 # O87
  0.1576000000000004    0.0683000000000001    0.8783999999999997 # O88
  0.0000000000000000    0.2889999999999999    0.4999999999999996 # O89
  0.8169999999999996    0.5684000000000003    0.4250999999999995 # O90
  0.0276000000000000    0.5686000000000000    0.6959999999999998 # O91
  0.1576000000000004    0.5682999999999998    0.3784000000000000 # O92
  0.5000000000000003    0.7889999999999996    0.4999999999999996 # O93
  0.3170000000000001    0.0684000000000000    0.4250999999999995 # O94
  0.5275999999999996    0.0686000000000004    0.6959999999999998 # O95
  0.6575999999999999    0.0683000000000001    0.3784000000000000 # O96
  0.4999999999999996    0.2889999999999999    0.0000000000000000 # O97
  0.3170000000000001    0.5684000000000003    0.9250999999999998 # O98
  0.5275999999999996    0.5686000000000000    0.1959999999999996 # O99
  0.6575999999999999    0.5682999999999998    0.8783999999999997 # O100
  0.7889999999999996    0.0000000000000000    0.0000000000000000 # O101
  0.0684000000000000    0.0749000000000001    0.1830000000000002 # O102
  0.0686000000000004    0.8040000000000003    0.9723999999999998 # O103
  0.0683000000000001    0.1216000000000002    0.8423999999999995 # O104
  0.7889999999999996    0.4999999999999996    0.4999999999999996 # O105
  0.0684000000000000    0.5748999999999996    0.6829999999999998 # O106
  0.0686000000000004    0.3039999999999999    0.4723999999999995 # O107
  0.0683000000000001    0.6215999999999999    0.3424000000000000 # O108
  0.2889999999999999    0.0000000000000000    0.4999999999999996 # O109
  0.5684000000000003    0.0749000000000001    0.6829999999999998 # O110
  0.5686000000000000    0.8039999999999996    0.4723999999999995 # O111
  0.5682999999999998    0.1216000000000002    0.3424000000000000 # O112
  0.2889999999999999    0.4999999999999996    0.0000000000000000 # O113
  0.5684000000000003    0.5748999999999996    0.1830000000000002 # O114
  0.5686000000000000    0.3039999999999999    0.9723999999999998 # O115
  0.5682999999999998    0.6215999999999999    0.8423999999999995 # O116
  0.1830000000000002    0.0749000000000001    0.9315999999999998 # O117
  0.9723999999999998    0.8040000000000003    0.9313999999999995 # O118
  0.8423999999999995    0.1216000000000002    0.9316999999999996 # O119
  0.1830000000000002    0.5748999999999996    0.4315999999999996 # O120
  0.9723999999999998    0.3039999999999999    0.4313999999999999 # O121
  0.8423999999999995    0.6215999999999999    0.4317000000000002 # O122
  0.6829999999999998    0.0749000000000001    0.4315999999999996 # O123
  0.4724000000000002    0.8039999999999996    0.4313999999999999 # O124
  0.3424000000000000    0.1216000000000002    0.4317000000000002 # O125
  0.6829999999999998    0.5748999999999996    0.9315999999999998 # O126
  0.4724000000000002    0.3039999999999999    0.9313999999999995 # O127
  0.3424000000000000    0.6215999999999999    0.9316999999999996 # O128
  0.2109999999999996    0.0000000000000000    0.0000000000000000 # O129
  0.9315999999999998    0.0749000000000001    0.8169999999999996 # O130
  0.9313999999999995    0.8039999999999996    0.0276000000000000 # O131
  0.9316999999999996    0.1216000000000002    0.1575999999999996 # O132
  0.2110000000000003    0.4999999999999996    0.4999999999999996 # O133
  0.9315999999999998    0.5748999999999996    0.3170000000000001 # O134
  0.9313999999999995    0.3039999999999999    0.5275999999999996 # O135
  0.9316999999999996    0.6215999999999999    0.6575999999999999 # O136
  0.7110000000000000    0.0000000000000000    0.4999999999999996 # O137
  0.4315999999999996    0.0749000000000001    0.3170000000000001 # O138
  0.4313999999999999    0.8039999999999996    0.5275999999999996 # O139
  0.4317000000000002    0.1216000000000002    0.6575999999999999 # O140
  0.7110000000000000    0.4999999999999996    0.0000000000000000 # O141
  0.4316000000000003    0.5748999999999996    0.8169999999999996 # O142
  0.4313999999999999    0.3039999999999999    0.0276000000000000 # O143
  0.4317000000000002    0.6215999999999999    0.1575999999999996 # O144
  0.0684000000000000    0.8169999999999996    0.0749000000000001 # O145
  0.0685999999999997    0.0276000000000000    0.8039999999999996 # O146
  0.0683000000000001    0.1575999999999996    0.1216000000000002 # O147
  0.0684000000000000    0.3170000000000001    0.5748999999999996 # O148
  0.0686000000000004    0.5275999999999996    0.3039999999999999 # O149
  0.0683000000000001    0.6575999999999999    0.6215999999999999 # O150
  0.5684000000000003    0.8169999999999996    0.5748999999999996 # O151
  0.5686000000000000    0.0276000000000000    0.3039999999999999 # O152
  0.5682999999999998    0.1576000000000004    0.6215999999999999 # O153
  0.5684000000000003    0.3170000000000001    0.0749000000000001 # O154
  0.5686000000000000    0.5275999999999996    0.8039999999999996 # O155
  0.5682999999999998    0.6575999999999999    0.1216000000000002 # O156
  0.0749000000000001    0.0684000000000000    0.8169999999999996 # O157
  0.8039999999999996    0.0685999999999997    0.0276000000000000 # O158
  0.1216000000000002    0.0683000000000001    0.1575999999999996 # O159
  0.0749000000000001    0.5684000000000003    0.3170000000000001 # O160
  0.8039999999999996    0.5686000000000000    0.5275999999999996 # O161
  0.1216000000000002    0.5682999999999998    0.6575999999999999 # O162
  0.5748999999999996    0.0684000000000000    0.3170000000000001 # O163
  0.3039999999999999    0.0686000000000004    0.5275999999999996 # O164
  0.6215999999999999    0.0683000000000001    0.6575999999999999 # O165
  0.5748999999999996    0.5684000000000003    0.8169999999999996 # O166
  0.3039999999999999    0.5686000000000000    0.0276000000000000 # O167
  0.6215999999999999    0.5682999999999998    0.1575999999999996 # O168
  0.9250999999999998    0.9315999999999998    0.8169999999999996 # O169
  0.1960000000000003    0.9313999999999995    0.0276000000000000 # O170
  0.8783999999999997    0.9316999999999996    0.1575999999999996 # O171
  0.9250999999999998    0.4315999999999996    0.3170000000000001 # O172
  0.1960000000000003    0.4313999999999999    0.5275999999999996 # O173
  0.8783999999999997    0.4317000000000002    0.6575999999999999 # O174
  0.4251000000000002    0.9315999999999998    0.3170000000000001 # O175
  0.6959999999999998    0.9313999999999995    0.5275999999999996 # O176
  0.3784000000000000    0.9316999999999996    0.6575999999999999 # O177
  0.4251000000000002    0.4316000000000003    0.8169999999999996 # O178
  0.6959999999999998    0.4313999999999999    0.0276000000000000 # O179
  0.3784000000000000    0.4317000000000002    0.1575999999999996 # O180
  0.0684000000000000    0.1830000000000002    0.9250999999999998 # O181
  0.0686000000000004    0.9723999999999998    0.1959999999999996 # O182
  0.0683000000000001    0.8424000000000004    0.8783999999999997 # O183
  0.0684000000000000    0.6829999999999998    0.4250999999999995 # O184
  0.0686000000000004    0.4724000000000002    0.6959999999999998 # O185
  0.0683000000000001    0.3424000000000000    0.3784000000000000 # O186
  0.5684000000000003    0.1830000000000002    0.4250999999999995 # O187
  0.5686000000000000    0.9723999999999998    0.6959999999999998 # O188
  0.5682999999999998    0.8423999999999995    0.3784000000000000 # O189
  0.5684000000000003    0.6829999999999998    0.9250999999999998 # O190
  0.5686000000000000    0.4723999999999995    0.1959999999999996 # O191
  0.5682999999999998    0.3424000000000000    0.8783999999999997 # O192
  0.9250999999999998    0.0684000000000000    0.1830000000000002 # O193
  0.1960000000000003    0.0686000000000004    0.9723999999999998 # O194
  0.8783999999999997    0.0683000000000001    0.8423999999999995 # O195
  0.9250999999999998    0.5684000000000003    0.6829999999999998 # O196
  0.1960000000000003    0.5686000000000000    0.4723999999999995 # O197
  0.8783999999999997    0.5682999999999998    0.3424000000000000 # O198
  0.4251000000000002    0.0684000000000000    0.6829999999999998 # O199
  0.6959999999999998    0.0686000000000004    0.4723999999999995 # O200
  0.3784000000000000    0.0683000000000001    0.3424000000000000 # O201
  0.4251000000000002    0.5684000000000003    0.1830000000000002 # O202
  0.6959999999999998    0.5686000000000000    0.9723999999999998 # O203
  0.3784000000000000    0.5682999999999998    0.8423999999999995 # O204
  0.9315999999999998    0.1830000000000002    0.0749000000000001 # O205
  0.9313999999999995    0.9723999999999998    0.8039999999999996 # O206
  0.9316999999999996    0.8423999999999995    0.1216000000000002 # O207
  0.9315999999999998    0.6829999999999998    0.5748999999999996 # O208
  0.9313999999999995    0.4724000000000002    0.3039999999999999 # O209
  0.9316999999999996    0.3424000000000000    0.6215999999999999 # O210
  0.4315999999999996    0.1830000000000002    0.5748999999999996 # O211
  0.4313999999999999    0.9723999999999998    0.3039999999999999 # O212
  0.4317000000000002    0.8424000000000004    0.6215999999999999 # O213
  0.4315999999999996    0.6829999999999998    0.0749000000000001 # O214
  0.4313999999999999    0.4724000000000002    0.8039999999999996 # O215
  0.4317000000000002    0.3424000000000000    0.1216000000000002 # O216
  0.9315999999999998    0.8169999999999996    0.9250999999999998 # O217
  0.9313999999999995    0.0276000000000000    0.1959999999999996 # O218
  0.9316999999999996    0.1576000000000004    0.8783999999999997 # O219
  0.9315999999999998    0.3170000000000001    0.4250999999999995 # O220
  0.9313999999999995    0.5275999999999996    0.6959999999999998 # O221
  0.9316999999999996    0.6575999999999999    0.3784000000000000 # O222
  0.4315999999999996    0.8169999999999996    0.4250999999999995 # O223
  0.4313999999999999    0.0276000000000000    0.6959999999999998 # O224
  0.4317000000000002    0.1576000000000004    0.3784000000000000 # O225
  0.4315999999999996    0.3170000000000001    0.9250999999999998 # O226
  0.4313999999999999    0.5275999999999996    0.1959999999999996 # O227
  0.4317000000000002    0.6575999999999999    0.8783999999999997 # O228
  0.0749000000000001    0.9315999999999998    0.1830000000000002 # O229
  0.8039999999999996    0.9314000000000001    0.9723999999999998 # O230
  0.1216000000000002    0.9316999999999996    0.8423999999999995 # O231
  0.0749000000000001    0.4315999999999996    0.6829999999999998 # O232
  0.8039999999999996    0.4313999999999999    0.4723999999999995 # O233
  0.1216000000000002    0.4317000000000002    0.3424000000000000 # O234
  0.5748999999999996    0.9315999999999998    0.6829999999999998 # O235
  0.3039999999999999    0.9313999999999995    0.4723999999999995 # O236
  0.6215999999999999    0.9316999999999996    0.3424000000000000 # O237
  0.5748999999999996    0.4315999999999996    0.1830000000000002 # O238
  0.3039999999999999    0.4313999999999999    0.9723999999999998 # O239
  0.6215999999999999    0.4317000000000002    0.8423999999999995 # O240
  0.0749000000000001    0.8169999999999996    0.9315999999999998 # O241
  0.8039999999999996    0.0276000000000000    0.9313999999999995 # O242
  0.1216000000000002    0.1576000000000004    0.9316999999999996 # O243
  0.0749000000000001    0.3170000000000001    0.4315999999999996 # O244
  0.8039999999999996    0.5275999999999996    0.4313999999999999 # O245
  0.1216000000000002    0.6575999999999999    0.4317000000000002 # O246
  0.5748999999999996    0.8169999999999996    0.4315999999999996 # O247
  0.3039999999999999    0.0276000000000000    0.4313999999999999 # O248
  0.6215999999999999    0.1576000000000004    0.4317000000000002 # O249
  0.5748999999999996    0.3170000000000001    0.9315999999999998 # O250
  0.3039999999999999    0.5275999999999996    0.9313999999999995 # O251
  0.6215999999999999    0.6575999999999999    0.9316999999999996 # O252
  0.9250999999999998    0.1830000000000002    0.9315999999999998 # O253
  0.1960000000000003    0.9723999999999998    0.9313999999999995 # O254
  0.8783999999999997    0.8424000000000004    0.9316999999999996 # O255
  0.9250999999999998    0.6829999999999998    0.4315999999999996 # O256
  0.1960000000000003    0.4724000000000002    0.4313999999999999 # O257
  0.8783999999999997    0.3424000000000000    0.4317000000000002 # O258
  0.4250999999999995    0.1830000000000002    0.4315999999999996 # O259
  0.6959999999999998    0.9723999999999998    0.4313999999999999 # O260
  0.3784000000000000    0.8423999999999995    0.4317000000000002 # O261
  0.4251000000000002    0.6829999999999998    0.9315999999999998 # O262
  0.6959999999999998    0.4724000000000002    0.9313999999999995 # O263
  0.3784000000000000    0.3424000000000000    0.9316999999999996 # O264
  0.1830000000000002    0.0684000000000000    0.0749000000000001 # O265
  0.9723999999999998    0.0686000000000004    0.8039999999999996 # O266
  0.8423999999999995    0.0683000000000001    0.1216000000000002 # O267
  0.1830000000000002    0.5684000000000003    0.5748999999999996 # O268
  0.9723999999999998    0.5686000000000000    0.3039999999999999 # O269
  0.8423999999999995    0.5682999999999998    0.6215999999999999 # O270
  0.6829999999999998    0.0684000000000000    0.5748999999999996 # O271
  0.4723999999999995    0.0685999999999997    0.3039999999999999 # O272
  0.3424000000000000    0.0683000000000001    0.6215999999999999 # O273
  0.6829999999999998    0.5684000000000003    0.0749000000000001 # O274
  0.4724000000000002    0.5686000000000000    0.8039999999999996 # O275
  0.3424000000000000    0.5682999999999998    0.1216000000000002 # O276
  0.1830000000000002    0.9315999999999998    0.9250999999999998 # O277
  0.9723999999999998    0.9313999999999995    0.1959999999999996 # O278
  0.8423999999999995    0.9316999999999996    0.8783999999999997 # O279
  0.1830000000000002    0.4315999999999996    0.4250999999999995 # O280
  0.9723999999999998    0.4313999999999999    0.6959999999999998 # O281
  0.8423999999999995    0.4317000000000002    0.3784000000000000 # O282
  0.6829999999999998    0.9315999999999998    0.4250999999999995 # O283
  0.4724000000000002    0.9314000000000001    0.6959999999999998 # O284
  0.3424000000000000    0.9316999999999996    0.3784000000000000 # O285
  0.6829999999999998    0.4316000000000003    0.9250999999999998 # O286
  0.4723999999999995    0.4313999999999999    0.1959999999999996 # O287
  0.3424000000000000    0.4317000000000002    0.8783999999999997 # O288
  0.0684000000000000    0.9250999999999998    0.8169999999999996 # O289
  0.0685999999999997    0.1959999999999996    0.0276000000000000 # O290
  0.0683000000000001    0.8783999999999997    0.1575999999999996 # O291
  0.0684000000000000    0.4251000000000002    0.3170000000000001 # O292
  0.0686000000000004    0.6959999999999998    0.5275999999999996 # O293
  0.0683000000000001    0.3784000000000000    0.6575999999999999 # O294
  0.5684000000000003    0.9250999999999998    0.3170000000000001 # O295
  0.5686000000000000    0.1960000000000003    0.5275999999999996 # O296
  0.5682999999999998    0.8783999999999997    0.6575999999999999 # O297
  0.5684000000000003    0.4251000000000002    0.8169999999999996 # O298
  0.5686000000000000    0.6959999999999998    0.0276000000000000 # O299
  0.5682999999999998    0.3784000000000000    0.1575999999999996 # O300
  0.9315999999999998    0.9250999999999998    0.1830000000000002 # O301
  0.9313999999999995    0.1960000000000003    0.9723999999999998 # O302
  0.9316999999999996    0.8783999999999997    0.8423999999999995 # O303
  0.9315999999999998    0.4251000000000002    0.6829999999999998 # O304
  0.9313999999999995    0.6959999999999998    0.4723999999999995 # O305
  0.9316999999999996    0.3784000000000000    0.3424000000000000 # O306
  0.4316000000000003    0.9250999999999998    0.6829999999999998 # O307
  0.4313999999999999    0.1960000000000003    0.4723999999999995 # O308
  0.4317000000000002    0.8783999999999997    0.3424000000000000 # O309
  0.4315999999999996    0.4250999999999995    0.1830000000000002 # O310
  0.4313999999999999    0.6959999999999998    0.9723999999999998 # O311
  0.4317000000000002    0.3784000000000000    0.8423999999999995 # O312
  0.5174000000000002    0.4885000000000000    0.5124000000000000 # Na1
  0.2585999999999999    0.2398000000000000    0.2706000000000001 # Na2
  0.5174000000000002    0.9884999999999995    1.0123999999999995 # Na3
  0.2585999999999999    0.7398000000000002    0.7705999999999997 # Na4
  1.0173999999999996    0.4885000000000000    1.0123999999999995 # Na5
  0.7585999999999994    0.2398000000000000    0.7705999999999997 # Na6
  1.0173999999999996    0.9884999999999995    0.5124000000000000 # Na7
  0.7585999999999994    0.7397999999999996    0.2706000000000001 # Na8
  0.5114999999999998    0.5174000000000002    0.5124000000000000 # Na9
  0.7601999999999999    0.2585999999999999    0.2706000000000001 # Na10
  0.5114999999999998    1.0173999999999996    1.0123999999999995 # Na11
  0.7601999999999999    0.7586000000000002    0.7705999999999997 # Na12
  1.0115000000000001    0.5174000000000002    1.0123999999999995 # Na13
  0.2602000000000003    0.2585999999999999    0.7705999999999997 # Na14
  1.0115000000000001    1.0173999999999996    0.5124000000000000 # Na15
  0.2602000000000003    0.7585999999999994    0.2706000000000001 # Na16
  0.4825999999999997    0.5114999999999998    0.5124000000000000 # Na17
  0.7414000000000001    0.7601999999999999    0.2706000000000001 # Na18
  0.4825999999999997    1.0115000000000001    1.0123999999999995 # Na19
  0.7414000000000001    0.2602000000000003    0.7705999999999997 # Na20
  0.9826000000000001    0.5114999999999998    1.0123999999999995 # Na21
  0.2414000000000004    0.7601999999999999    0.7705999999999997 # Na22
  0.9826000000000001    1.0114999999999996    0.5124000000000000 # Na23
  0.2413999999999997    0.2602000000000003    0.2706000000000001 # Na24
  0.4885000000000000    0.4825999999999997    0.5124000000000000 # Na25
  0.2398000000000000    0.7414000000000001    0.2706000000000001 # Na26
  0.4885000000000000    0.9826000000000001    1.0123999999999995 # Na27
  0.2398000000000000    0.2413999999999997    0.7705999999999997 # Na28
  0.9884999999999995    0.4825999999999997    1.0123999999999995 # Na29
  0.7397999999999996    0.7414000000000001    0.7705999999999997 # Na30
  0.9884999999999995    0.9826000000000001    0.5124000000000000 # Na31
  0.7397999999999996    0.2413999999999997    0.2706000000000001 # Na32
  0.5174000000000002    0.4875999999999999    0.4885000000000000 # Na33
  0.2585999999999999    0.7293999999999998    0.2398000000000000 # Na34
  0.5174000000000002    0.9876000000000001    0.9884999999999995 # Na35
  0.2585999999999999    0.2294000000000001    0.7397999999999996 # Na36
  1.0173999999999996    0.4875999999999999    0.9884999999999995 # Na37
  0.7585999999999994    0.7293999999999998    0.7397999999999996 # Na38
  1.0173999999999996    0.9875999999999996    0.4885000000000000 # Na39
  0.7585999999999994    0.2294000000000001    0.2398000000000000 # Na40
  0.5174000000000002    0.5114999999999998    0.4875999999999999 # Na41
  0.2585999999999999    0.7601999999999999    0.7293999999999998 # Na42
  0.5174000000000002    1.0115000000000001    0.9875999999999996 # Na43
  0.2585999999999999    0.2602000000000003    0.2294000000000001 # Na44
  1.0173999999999996    0.5114999999999998    0.9875999999999996 # Na45
  0.7585999999999994    0.7601999999999999    0.2294000000000001 # Na46
  1.0173999999999996    1.0114999999999996    0.4875999999999999 # Na47
  0.7585999999999994    0.2602000000000003    0.7293999999999998 # Na48
  0.5174000000000002    0.5124000000000000    0.5114999999999998 # Na49
  0.2585999999999999    0.2706000000000001    0.7601999999999999 # Na50
  0.5174000000000002    1.0123999999999995    1.0114999999999996 # Na51
  0.2585999999999999    0.7705999999999997    0.2601999999999996 # Na52
  1.0173999999999996    0.5124000000000000    1.0114999999999996 # Na53
  0.7585999999999994    0.2706000000000001    0.2601999999999996 # Na54
  1.0173999999999996    1.0123999999999995    0.5114999999999998 # Na55
  0.7585999999999994    0.7705999999999997    0.7601999999999999 # Na56
  0.5124000000000000    0.4885000000000000    0.4825999999999997 # Na57
  0.2706000000000001    0.2398000000000000    0.7414000000000001 # Na58
  0.5124000000000000    0.9884999999999995    0.9826000000000001 # Na59
  0.2706000000000001    0.7397999999999996    0.2413999999999997 # Na60
  1.0123999999999995    0.4885000000000000    0.9826000000000001 # Na61
  0.7705999999999997    0.2398000000000000    0.2413999999999997 # Na62
  1.0123999999999995    0.9884999999999995    0.4825999999999997 # Na63
  0.7705999999999997    0.7398000000000002    0.7414000000000001 # Na64
  0.4825999999999997    0.4885000000000000    0.4875999999999999 # Na65
  0.7414000000000001    0.2398000000000000    0.7293999999999998 # Na66
  0.4825999999999997    0.9884999999999995    0.9875999999999996 # Na67
  0.7414000000000001    0.7397999999999996    0.2294000000000001 # Na68
  0.9826000000000001    0.4885000000000000    0.9875999999999996 # Na69
  0.2413999999999997    0.2398000000000000    0.2294000000000001 # Na70
  0.9826000000000001    0.9884999999999995    0.4875999999999999 # Na71
  0.2413999999999997    0.7398000000000002    0.7293999999999998 # Na72
  0.4875999999999999    0.4885000000000000    0.5174000000000002 # Na73
  0.7293999999999998    0.2398000000000000    0.2585999999999999 # Na74
  0.4875999999999999    0.9884999999999995    1.0173999999999996 # Na75
  0.7293999999999998    0.7398000000000002    0.7585999999999994 # Na76
  0.9876000000000001    0.4885000000000000    1.0173999999999996 # Na77
  0.2294000000000001    0.2398000000000000    0.7585999999999994 # Na78
  0.9876000000000001    0.9884999999999995    0.5174000000000002 # Na79
  0.2294000000000001    0.7397999999999996    0.2585999999999999 # Na80
  0.5124000000000000    0.5174000000000002    0.4885000000000000 # Na81
  0.2706000000000001    0.2585999999999999    0.2398000000000000 # Na82
  0.5124000000000000    1.0173999999999996    0.9884999999999995 # Na83
  0.2706000000000001    0.7586000000000002    0.7397999999999996 # Na84
  1.0123999999999995    0.5174000000000002    0.9884999999999995 # Na85
  0.7705999999999997    0.2585999999999999    0.7397999999999996 # Na86
  1.0123999999999995    1.0173999999999996    0.4885000000000000 # Na87
  0.7705999999999997    0.7585999999999994    0.2398000000000000 # Na88
  0.4885000000000000    0.5124000000000000    0.5174000000000002 # Na89
  0.2398000000000000    0.2706000000000001    0.2585999999999999 # Na90
  0.4885000000000000    1.0123999999999995    1.0173999999999996 # Na91
  0.2398000000000000    0.7705999999999997    0.7585999999999994 # Na92
  0.9884999999999995    0.5124000000000000    1.0173999999999996 # Na93
  0.7397999999999996    0.2706000000000001    0.7585999999999994 # Na94
  0.9884999999999995    1.0123999999999995    0.5174000000000002 # Na95
  0.7397999999999996    0.7705999999999997    0.2585999999999999 # Na96
  0.5114999999999998    0.4875999999999999    0.5174000000000002 # Na97
  0.7601999999999999    0.7293999999999998    0.2585999999999999 # Na98
  0.5114999999999998    0.9876000000000001    1.0173999999999996 # Na99