$cell vectors
1.0
 18.2699914032018427    0.0000000000000000    0.0000000000000000
  0.0000000000000000   18.2699914032018427    0.0000000000000000
  0.0000000000000000    0.0000000000000000   18.2699914032018427
 90 96 216
Direct
  0.0000000000000000    0.1510000000000001    0.3100000000000001 # Ba1
  0.0000000000000000    0.3639999999999999    0.3639999999999999 # Ba2
  0.1770000000000001    0.1770000000000001    0.1770000000000001 # Ba3
  0.0000000000000000    0.0000000000000000    0.0000000000000000 # Ba4
  0.5000000000000002    0.6509999999999999    0.8099999999999999 # Ba5
  0.5000000000000002    0.8640000000000001    0.8640000000000001 # Ba6
  0.6770000000000000    0.6770000000000003    0.6770000000000000 # Ba7
  0.0000000000000000    0.8489999999999999    0.6899999999999999 # Ba8
  0.0000000000000000    0.6360000000000001    0.6360000000000001 # Ba9
  0.8230000000000003    0.8230000000000000    0.8230000000000000 # Ba10
  0.4999999999999999    0.3490000000000000    0.1900000000000001 # Ba11
  0.4999999999999999    0.1359999999999999    0.1359999999999999 # Ba12
  0.3230000000000001    0.3230000000000001    0.3230000000000001 # Ba13
  0.8489999999999999    0.0000000000000000    0.3100000000000001 # Ba14
  0.6360000000000001    0.0000000000000000    0.3639999999999999 # Ba15
  0.8230000000000000    0.1770000000000001    0.1770000000000001 # Ba16
  0.3490000000000000    0.5000000000000002    0.8099999999999999 # Ba17
  0.1360000000000002    0.5000000000000002    0.8640000000000001 # Ba18
  0.3230000000000001    0.6770000000000003    0.6770000000000000 # Ba19
  0.1510000000000001    0.0000000000000000    0.6899999999999999 # Ba20
  0.3639999999999999    0.0000000000000000    0.6360000000000001 # Ba21
  0.1770000000000001    0.8230000000000000    0.8230000000000000 # Ba22
  0.6509999999999999    0.4999999999999999    0.1900000000000001 # Ba23
  0.8640000000000001    0.4999999999999999    0.1359999999999999 # Ba24
  0.6770000000000000    0.3230000000000001    0.3230000000000001 # Ba25
  0.0000000000000000    0.8489999999999999    0.3100000000000001 # Ba26
  0.0000000000000000    0.6360000000000001    0.3639999999999999 # Ba27
  0.8230000000000000    0.8230000000000000    0.1770000000000001 # Ba28
  0.5000000000000002    0.3490000000000000    0.8099999999999999 # Ba29
  0.3230000000000001    0.3230000000000001    0.6770000000000000 # Ba30
  0.0000000000000000    0.1510000000000001    0.6899999999999999 # Ba31
  0.0000000000000000    0.3639999999999999    0.6360000000000001 # Ba32
  0.1770000000000001    0.1770000000000001    0.8230000000000000 # Ba33
  0.4999999999999999    0.6509999999999999    0.1900000000000001 # Ba34
  0.5000000000000002    0.8640000000000001    0.1359999999999999 # Ba35
  0.6770000000000000    0.6770000000000000    0.3230000000000001 # Ba36
  0.1510000000000001    0.0000000000000000    0.3100000000000001 # Ba37
  0.3639999999999999    0.0000000000000000    0.3639999999999999 # Ba38
  0.1770000000000001    0.8230000000000000    0.1770000000000001 # Ba39
  0.6509999999999999    0.5000000000000002    0.8099999999999999 # Ba40
  0.8640000000000001    0.5000000000000002    0.8640000000000001 # Ba41
  0.8489999999999999    0.0000000000000000    0.6899999999999999 # Ba42
  0.6360000000000001    0.0000000000000000    0.6360000000000001 # Ba43
  0.8230000000000000    0.1770000000000001    0.8230000000000000 # Ba44
  0.3490000000000000    0.4999999999999999    0.1900000000000001 # Ba45
  0.1359999999999999    0.4999999999999999    0.1359999999999999 # Ba46
  0.3230000000000001    0.6770000000000000    0.3230000000000001 # Ba47
  0.0000000000000000    0.6899999999999999    0.1510000000000001 # Ba48
  0.4999999999999999    0.1900000000000001    0.6509999999999999 # Ba49
  0.5000000000000002    0.1360000000000002    0.8640000000000001 # Ba50
  0.6770000000000000    0.3230000000000001    0.6770000000000000 # Ba51
  0.4999999999999999    0.5000000000000002    0.4999999999999999 # Ba52
  0.0000000000000000    0.3100000000000001    0.8489999999999999 # Ba53
  0.5000000000000002    0.8099999999999999    0.3490000000000000 # Ba54
  0.3100000000000001    0.1510000000000001    0.0000000000000000 # Ba55
  0.3639999999999999    0.3639999999999999    0.0000000000000000 # Ba56
  0.8099999999999999    0.6509999999999999    0.4999999999999999 # Ba57
  0.8640000000000001    0.8640000000000001    0.4999999999999999 # Ba58
  0.6899999999999999    0.8489999999999999    0.0000000000000000 # Ba59
  0.6360000000000001    0.6360000000000001    0.0000000000000000 # Ba60
  0.1900000000000001    0.3490000000000000    0.4999999999999999 # Ba61
  0.1359999999999999    0.1359999999999999    0.4999999999999999 # Ba62
  0.6899999999999999    0.1510000000000001    0.0000000000000000 # Ba63
  0.6360000000000001    0.3639999999999999    0.0000000000000000 # Ba64
  0.1900000000000001    0.6509999999999999    0.4999999999999999 # Ba65
  0.1360000000000002    0.8640000000000001    0.4999999999999999 # Ba66
  0.3100000000000001    0.8489999999999999    0.0000000000000000 # Ba67
  0.3639999999999999    0.6360000000000001    0.0000000000000000 # Ba68
  0.8099999999999999    0.3490000000000000    0.4999999999999999 # Ba69
  0.8640000000000001    0.1359999999999999    0.4999999999999999 # Ba70
  0.3100000000000001    0.0000000000000000    0.1510000000000001 # Ba71
  0.8099999999999999    0.5000000000000002    0.6509999999999999 # Ba72
  0.6899999999999999    0.0000000000000000    0.8489999999999999 # Ba73
  0.1900000000000001    0.4999999999999999    0.3490000000000000 # Ba74
  0.1510000000000001    0.3100000000000001    0.0000000000000000 # Ba75
  0.6509999999999999    0.8100000000000002    0.4999999999999999 # Ba76
  0.8489999999999999    0.6899999999999999    0.0000000000000000 # Ba77
  0.3490000000000000    0.1900000000000001    0.4999999999999999 # Ba78
  0.3100000000000001    0.0000000000000000    0.8489999999999999 # Ba79
  0.8099999999999999    0.4999999999999999    0.3490000000000000 # Ba80
  0.6899999999999999    0.0000000000000000    0.1510000000000001 # Ba81
  0.1900000000000001    0.5000000000000002    0.6509999999999999 # Ba82
  0.8489999999999999    0.3100000000000001    0.0000000000000000 # Ba83
  0.3490000000000000    0.8100000000000002    0.4999999999999999 # Ba84
  0.1510000000000001    0.6899999999999999    0.0000000000000000 # Ba85
  0.6509999999999999    0.1900000000000001    0.4999999999999999 # Ba86
  0.0000000000000000    0.3100000000000001    0.1510000000000001 # Ba87
  0.5000000000000002    0.8100000000000002    0.6509999999999999 # Ba88
  0.0000000000000000    0.6899999999999999    0.8489999999999999 # Ba89
  0.4999999999999999    0.1900000000000001    0.3490000000000000 # Ba90
  0.2499999999999999    0.1500000000000000    0.3499999999999999 # Cu1
  0.0000000000000000    0.1250000000000001    0.1250000000000001 # Cu2
  0.2060000000000001    0.0000000000000000    0.0000000000000000 # Cu3
  0.4300000000000000    0.0000000000000000    0.0000000000000000 # Cu4
  0.7500000000000001    0.6500000000000001    0.8500000000000000 # Cu5
  0.4999999999999999    0.6250000000000000    0.6250000000000000 # Cu6
  0.7500000000000001    0.8500000000000000    0.6499999999999999 # Cu7
  0.0000000000000000    0.8750000000000002    0.8749999999999999 # Cu8
  0.7939999999999999    0.0000000000000000    0.0000000000000000 # Cu9
  0.5700000000000000    0.0000000000000000    0.0000000000000000 # Cu10
  0.2499999999999999    0.3499999999999999    0.1500000000000000 # Cu11
  0.4999999999999999    0.3750000000000001    0.3750000000000001 # Cu12
  0.2940000000000001    0.5000000000000002    0.4999999999999999 # Cu13
  0.0700000000000001    0.5000000000000002    0.4999999999999999 # Cu14
  0.8500000000000000    0.2499999999999999    0.3499999999999999 # Cu15
  0.8749999999999999    0.0000000000000000    0.1250000000000001 # Cu16
  0.0000000000000000    0.2060000000000001    0.0000000000000000 # Cu17
  0.0000000000000000    0.4300000000000000    0.0000000000000000 # Cu18
  0.3500000000000001    0.7500000000000001    0.8500000000000000 # Cu19
  0.3750000000000001    0.5000000000000002    0.6250000000000000 # Cu20
  0.4999999999999999    0.7059999999999998    0.4999999999999999 # Cu21
  0.5000000000000002    0.9299999999999999    0.4999999999999999 # Cu22
  0.1500000000000000    0.7500000000000001    0.6499999999999999 # Cu23
  0.1250000000000001    0.0000000000000000    0.8749999999999999 # Cu24
  0.0000000000000000    0.7939999999999999    0.0000000000000000 # Cu25
  0.0000000000000000    0.5700000000000000    0.0000000000000000 # Cu26
  0.6500000000000001    0.2499999999999999    0.1500000000000000 # Cu27
  0.6250000000000000    0.4999999999999999    0.3750000000000001 # Cu28
  0.4999999999999999    0.2940000000000001    0.4999999999999999 # Cu29
  0.4999999999999999    0.0700000000000001    0.4999999999999999 # Cu30
  0.7500000000000001    0.8500000000000000    0.3499999999999999 # Cu31
  0.2499999999999999    0.3500000000000001    0.8500000000000000 # Cu32
  0.2499999999999999    0.1500000000000000    0.6500000000000001 # Cu33
  0.0000000000000000    0.1250000000000001    0.8749999999999999 # Cu34
  0.7500000000000001    0.6500000000000001    0.1500000000000000 # Cu35
  0.4999999999999999    0.6250000000000000    0.3750000000000001 # Cu36
  0.1500000000000000    0.7500000000000001    0.3499999999999999 # Cu37
  0.1250000000000001    0.0000000000000000    0.1250000000000001 # Cu38
  0.6500000000000001    0.2500000000000002    0.8500000000000000 # Cu39
  0.6250000000000000    0.5000000000000002    0.6250000000000000 # Cu40
  0.8500000000000000    0.2499999999999999    0.6500000000000001 # Cu41
  0.8750000000000002    0.0000000000000000    0.8749999999999999 # Cu42
  0.3500000000000001    0.7500000000000001    0.1500000000000000 # Cu43
  0.3750000000000001    0.4999999999999999    0.3750000000000001 # Cu44
  0.2499999999999999    0.6500000000000001    0.1500000000000000 # Cu45
  0.0000000000000000    0.8749999999999999    0.1250000000000001 # Cu46
  0.7500000000000001    0.1500000000000000    0.6500000000000001 # Cu47
  0.4999999999999999    0.3750000000000001    0.6250000000000000 # Cu48
  0.7059999999999998    0.5000000000000002    0.4999999999999999 # Cu49
  0.9299999999999999    0.5000000000000002    0.4999999999999999 # Cu50
  0.7500000000000001    0.3500000000000001    0.8500000000000000 # Cu51
  0.2499999999999999    0.8500000000000000    0.3499999999999999 # Cu52
  0.2500000000000002    0.8500000000000000    0.6499999999999999 # Cu53
  0.7500000000000001    0.3499999999999999    0.1500000000000000 # Cu54
  0.7500000000000001    0.1500000000000000    0.3499999999999999 # Cu55
  0.2500000000000002    0.6500000000000001    0.8500000000000000 # Cu56
  0.3500000000000001    0.1500000000000000    0.7500000000000001 # Cu57
  0.1250000000000001    0.1250000000000001    0.0000000000000000 # Cu58
  0.0000000000000000    0.0000000000000000    0.7939999999999999 # Cu59
  0.0000000000000000    0.0000000000000000    0.5700000000000000 # Cu60
  0.8500000000000000    0.6500000000000001    0.2499999999999999 # Cu61
  0.6250000000000000    0.6250000000000000    0.4999999999999999 # Cu62
  0.4999999999999999    0.4999999999999999    0.2940000000000001 # Cu63
  0.4999999999999999    0.4999999999999999    0.0700000000000001 # Cu64
  0.6500000000000001    0.8500000000000000    0.2499999999999999 # Cu65
  0.8750000000000002    0.8749999999999999    0.0000000000000000 # Cu66
  0.0000000000000000    0.0000000000000000    0.2060000000000001 # Cu67
  0.0000000000000000    0.0000000000000000    0.4300000000000000 # Cu68
  0.1500000000000000    0.3500000000000001    0.7500000000000001 # Cu69
  0.3750000000000001    0.3750000000000001    0.4999999999999999 # Cu70
  0.4999999999999999    0.5000000000000002    0.7059999999999998 # Cu71
  0.5000000000000002    0.5000000000000002    0.9299999999999999 # Cu72
  0.6500000000000001    0.1500000000000000    0.2499999999999999 # Cu73
  0.8749999999999999    0.1250000000000001    0.0000000000000000 # Cu74
  0.1500000000000000    0.6500000000000001    0.7500000000000001 # Cu75
  0.3750000000000001    0.6250000000000000    0.4999999999999999 # Cu76
  0.3500000000000001    0.8500000000000000    0.7499999999999997 # Cu77
  0.1250000000000001    0.8749999999999999    0.0000000000000000 # Cu78
  0.8500000000000000    0.3500000000000001    0.2499999999999999 # Cu79
  0.6250000000000000    0.3750000000000001    0.4999999999999999 # Cu80
  0.3499999999999999    0.2499999999999999    0.1500000000000000 # Cu81
  0.8500000000000000    0.7500000000000004    0.6499999999999999 # Cu82
  0.6500000000000001    0.7500000000000001    0.8500000000000000 # Cu83
  0.1500000000000000    0.2499999999999999    0.3499999999999999 # Cu84
  0.1500000000000000    0.3500000000000001    0.2499999999999999 # Cu85
  0.6500000000000001    0.8500000000000000    0.7500000000000001 # Cu86
  0.8500000000000000    0.6500000000000001    0.7499999999999997 # Cu87
  0.3499999999999999    0.1500000000000000    0.2499999999999999 # Cu88
  0.8500000000000000    0.3500000000000001    0.7500000000000001 # Cu89
  0.3500000000000001    0.8500000000000000    0.2499999999999999 # Cu90
  0.1500000000000000    0.6500000000000001    0.2499999999999999 # Cu91
  0.6500000000000001    0.1500000000000000    0.7500000000000001 # Cu92
  0.6500000000000001    0.7500000000000001    0.1500000000000000 # Cu93
  0.1500000000000000    0.2499999999999999    0.6500000000000001 # Cu94
  0.3500000000000001    0.2500000000000002    0.8500000000000000 # Cu95
  0.8500000000000000    0.7500000000000001    0.3499999999999999 # Cu96
  0.0720000000000000    0.0720000000000000    0.1860000000000000 # O1
  0.1440000000000000    0.1440000000000000    0.3430000000000000 # O2
  0.2670000000000000    0.2670000000000000    0.0850000000000000 # O3
  0.2499999999999999    0.0000000000000000    0.4999999999999999 # O4
  0.3379999999999999    0.0000000000000000    0.0000000000000000 # O5
  0.0000000000000000    0.1120000000000001    0.4400000000000000 # O6
  0.5720000000000000    0.5720000000000003    0.6859999999999998 # O7
  0.6439999999999999    0.6439999999999999    0.8430000000000000 # O8
  0.7670000000000001    0.7670000000000001    0.5849999999999999 # O9
  0.7500000000000001    0.4999999999999999    0.0000000000000000 # O10
  0.5000000000000002    0.6120000000000000    0.9399999999999999 # O11
  0.9280000000000000    0.9280000000000000    0.8140000000000001 # O12
  0.8560000000000003    0.8560000000000003    0.6569999999999999 # O13
  0.7330000000000000    0.7330000000000000    0.9149999999999999 # O14
  0.6619999999999998    0.0000000000000000    0.0000000000000000 # O15
  0.0000000000000000    0.8880000000000000    0.5600000000000001 # O16
  0.4280000000000002    0.4280000000000002    0.3140000000000001 # O17
  0.3560000000000001    0.3560000000000001    0.1570000000000001 # O18
  0.2329999999999998    0.2329999999999998    0.4150000000000001 # O19
  0.2499999999999999    0.4999999999999999    0.0000000000000000 # O20
  0.1619999999999999    0.5000000000000002    0.4999999999999999 # O21
  0.4999999999999999    0.3880000000000001    0.0600000000000001 # O22
  0.9280000000000000    0.0720000000000000    0.1860000000000000 # O23
  0.8560000000000000    0.1440000000000000    0.3430000000000000 # O24
  0.7330000000000000    0.2670000000000000    0.0850000000000000 # O25
  0.0000000000000000    0.2499999999999999    0.4999999999999999 # O26
  0.0000000000000000    0.3379999999999999    0.0000000000000000 # O27
  0.8880000000000000    0.0000000000000000    0.4400000000000000 # O28
  0.4280000000000002    0.5720000000000003    0.6859999999999998 # O29
  0.3560000000000001    0.6439999999999999    0.8430000000000000 # O30
  0.2330000000000002    0.7670000000000001    0.5849999999999999 # O31
  0.4999999999999999    0.7500000000000001    0.0000000000000000 # O32
  0.5000000000000002    0.8380000000000001    0.4999999999999999 # O33
  0.3880000000000001    0.5000000000000002    0.9399999999999999 # O34
  0.0720000000000000    0.9280000000000000    0.8140000000000001 # O35
  0.1440000000000000    0.8560000000000003    0.6569999999999999 # O36
  0.2670000000000000    0.7330000000000000    0.9149999999999999 # O37
  0.0000000000000000    0.7500000000000001    0.4999999999999999 # O38
  0.0000000000000000    0.6619999999999998    0.0000000000000000 # O39
  0.1120000000000001    0.0000000000000000    0.5600000000000001 # O40
  0.5720000000000000    0.4280000000000002    0.3140000000000001 # O41
  0.6439999999999999    0.3560000000000001    0.1570000000000001 # O42
  0.7670000000000001    0.2329999999999998    0.4150000000000001 # O43
  0.4999999999999999    0.2499999999999999    0.0000000000000000 # O44
  0.4999999999999999    0.1619999999999999    0.4999999999999999 # O45
  0.6120000000000000    0.4999999999999999    0.0600000000000001 # O46
  0.9280000000000000    0.9280000000000000    0.1860000000000000 # O47
  0.8560000000000003    0.8560000000000000    0.3430000000000000 # O48
  0.7330000000000000    0.7330000000000000    0.0850000000000000 # O49
  0.0000000000000000    0.8880000000000000    0.4400000000000000 # O50
  0.4280000000000002    0.4280000000000002    0.6859999999999998 # O51
  0.3560000000000001    0.3560000000000001    0.8430000000000000 # O52
  0.2329999999999998    0.2329999999999998    0.5849999999999999 # O53
  0.5000000000000002    0.3880000000000001    0.9399999999999999 # O54
  0.0720000000000000    0.0720000000000000    0.8140000000000001 # O55
  0.1440000000000000    0.1440000000000000    0.6569999999999999 # O56
  0.2670000000000000    0.2670000000000000    0.9149999999999999 # O57
  0.0000000000000000    0.1120000000000001    0.5600000000000001 # O58
  0.5720000000000000    0.5720000000000000    0.3140000000000001 # O59
  0.6439999999999999    0.6439999999999999    0.1570000000000001 # O60
  0.7670000000000001    0.7670000000000001    0.4150000000000001 # O61
  0.4999999999999999    0.6120000000000000    0.0600000000000001 # O62
  0.0720000000000000    0.9280000000000000    0.1860000000000000 # O63
  0.1440000000000000    0.8560000000000000    0.3430000000000000 # O64
  0.2670000000000000    0.7330000000000000    0.0850000000000000 # O65
  0.1120000000000001    0.0000000000000000    0.4400000000000000 # O66
  0.5720000000000000    0.4280000000000002    0.6859999999999998 # O67
  0.6439999999999999    0.3560000000000001    0.8430000000000000 # O68
  0.7670000000000001    0.2329999999999998    0.5849999999999999 # O69
  0.6120000000000000    0.5000000000000002    0.9399999999999999 # O70
  0.9280000000000000    0.0720000000000000    0.8140000000000001 # O71
  0.8560000000000000    0.1440000000000000    0.6569999999999999 # O72
  0.7330000000000000    0.2670000000000000    0.9149999999999999 # O73
  0.8880000000000000    0.0000000000000000    0.5600000000000001 # O74
  0.4280000000000002    0.5720000000000000    0.3140000000000001 # O75
  0.3560000000000001    0.6439999999999999    0.1570000000000001 # O76
  0.2330000000000002    0.7670000000000001    0.4150000000000001 # O77
  0.3880000000000001    0.4999999999999999    0.0600000000000001 # O78
  0.0720000000000000    0.8140000000000001    0.0720000000000000 # O79
  0.1440000000000000    0.6569999999999999    0.1440000000000000 # O80
  0.2670000000000000    0.9150000000000004    0.2670000000000000 # O81
  0.0000000000000000    0.5600000000000001    0.1120000000000001 # O82
  0.5720000000000000    0.3140000000000001    0.5720000000000000 # O83
  0.6439999999999999    0.1570000000000001    0.6439999999999999 # O84
  0.7669999999999998    0.4150000000000001    0.7670000000000001 # O85
  0.7500000000000001    0.0000000000000000    0.4999999999999999 # O86
  0.8380000000000001    0.5000000000000002    0.4999999999999999 # O87
  0.4999999999999999    0.0600000000000001    0.6120000000000000 # O88
  0.9280000000000000    0.1860000000000000    0.9280000000000000 # O89
  0.8560000000000003    0.3430000000000000    0.8560000000000000 # O90
  0.7330000000000000    0.0850000000000000    0.7330000000000000 # O91
  0.0000000000000000    0.4400000000000000    0.8880000000000000 # O92
  0.4280000000000002    0.6859999999999998    0.4280000000000002 # O93
  0.3560000000000001    0.8430000000000002    0.3560000000000001 # O94
  0.2329999999999998    0.5849999999999999    0.2329999999999998 # O95
  0.5000000000000002    0.9399999999999999    0.3880000000000001 # O96
  0.0720000000000000    0.1860000000000000    0.9280000000000000 # O97
  0.1440000000000000    0.3430000000000000    0.8560000000000000 # O98
  0.2670000000000000    0.0850000000000000    0.7330000000000000 # O99
  0.5720000000000000    0.6859999999999998    0.4280000000000002 # O100
  0.6439999999999999    0.8430000000000000    0.3560000000000001 # O101
  0.7670000000000001    0.5849999999999999    0.2329999999999998 # O102
  0.9280000000000000    0.8140000000000001    0.0720000000000000 # O103
  0.8560000000000003    0.6569999999999999    0.1440000000000000 # O104
  0.7330000000000000    0.9149999999999999    0.2670000000000000 # O105
  0.4280000000000002    0.3140000000000001    0.5720000000000000 # O106
  0.3560000000000001    0.1570000000000001    0.6439999999999999 # O107
  0.2330000000000002    0.4150000000000001    0.7670000000000001 # O108
  0.1860000000000000    0.0720000000000000    0.9280000000000000 # O109
  0.3430000000000000    0.1440000000000000    0.8560000000000000 # O110
  0.0850000000000000    0.2670000000000000    0.7330000000000000 # O111
  0.4999999999999999    0.0000000000000000    0.7500000000000001 # O112
  0.0000000000000000    0.0000000000000000    0.6619999999999998 # O113
  0.4400000000000000    0.1120000000000001    0.0000000000000000 # O114
  0.6859999999999998    0.5720000000000000    0.4280000000000002 # O115
  0.8430000000000002    0.6439999999999999    0.3560000000000001 # O116
  0.5849999999999999    0.7670000000000001    0.2329999999999998 # O117
  0.0000000000000000    0.4999999999999999    0.2499999999999999 # O118
  0.4999999999999999    0.4999999999999999    0.1619999999999999 # O119
  0.9399999999999999    0.6120000000000000    0.4999999999999999 # O120
  0.8140000000000003    0.9280000000000000    0.0720000000000000 # O121
  0.6570000000000003    0.8560000000000000    0.1440000000000000 # O122
  0.9150000000000004    0.7330000000000000    0.2670000000000000 # O123
  0.4999999999999999    0.0000000000000000    0.2499999999999999 # O124
  0.0000000000000000    0.0000000000000000    0.3379999999999999 # O125
  0.5600000000000003    0.8880000000000000    0.0000000000000000 # O126
  0.3140000000000001    0.4280000000000002    0.5720000000000000 # O127
  0.1570000000000001    0.3560000000000001    0.6439999999999999 # O128
  0.4150000000000001    0.2330000000000002    0.7670000000000001 # O129
  0.0000000000000000    0.5000000000000002    0.7500000000000001 # O130
  0.5000000000000002    0.5000000000000002    0.8380000000000001 # O131
  0.0600000000000001    0.3880000000000001    0.4999999999999999 # O132
  0.8140000000000001    0.0720000000000000    0.0720000000000000 # O133
  0.6569999999999999    0.1440000000000000    0.1440000000000000 # O134
  0.9149999999999999    0.2670000000000000    0.2670000000000000 # O135
  0.5600000000000001    0.1120000000000001    0.0000000000000000 # O136
  0.3140000000000001    0.5720000000000003    0.5720000000000000 # O137
  0.1570000000000001    0.6439999999999999    0.6439999999999999 # O138
  0.4150000000000001    0.7670000000000001    0.7670000000000001 # O139
  0.0600000000000001    0.6120000000000000    0.4999999999999999 # O140
  0.1860000000000000    0.9280000000000002    0.9280000000000000 # O141
  0.3430000000000000    0.8560000000000003    0.8560000000000000 # O142
  0.0850000000000000    0.7330000000000000    0.7330000000000000 # O143
  0.4400000000000000    0.8880000000000000    0.0000000000000000 # O144
  0.6859999999999998    0.4280000000000002    0.4280000000000002 # O145
  0.8430000000000000    0.3560000000000001    0.3560000000000001 # O146
  0.5849999999999999    0.2329999999999998    0.2329999999999998 # O147
  0.9399999999999999    0.3880000000000001    0.4999999999999999 # O148
  0.1860000000000000    0.0720000000000000    0.0720000000000000 # O149
  0.3430000000000000    0.1440000000000000    0.1440000000000000 # O150
  0.0850000000000000    0.2670000000000000    0.2670000000000000 # O151
  0.4400000000000000    0.0000000000000000    0.1120000000000001 # O152
  0.6859999999999998    0.5720000000000003    0.5720000000000000 # O153
  0.8430000000000000    0.6439999999999999    0.6439999999999999 # O154
  0.5849999999999999    0.7670000000000001    0.7670000000000001 # O155
  0.9399999999999999    0.5000000000000002    0.6120000000000000 # O156
  0.8140000000000003    0.9280000000000002    0.9280000000000000 # O157
  0.6569999999999999    0.8560000000000003    0.8560000000000000 # O158
  0.9149999999999999    0.7330000000000000    0.7330000000000000 # O159
  0.5600000000000003    0.0000000000000000    0.8880000000000000 # O160
  0.3140000000000001    0.4280000000000002    0.4280000000000002 # O161
  0.1570000000000001    0.3560000000000001    0.3560000000000001 # O162
  0.4150000000000001    0.2329999999999998    0.2329999999999998 # O163
  0.0600000000000001    0.4999999999999999    0.3880000000000001 # O164
  0.0720000000000000    0.1860000000000000    0.0720000000000000 # O165
  0.1440000000000000    0.3430000000000000    0.1440000000000000 # O166
  0.2670000000000000    0.0850000000000000    0.2670000000000000 # O167
  0.1120000000000001    0.4400000000000000    0.0000000000000000 # O168
  0.5720000000000000    0.6859999999999998    0.5720000000000000 # O169
  0.6439999999999999    0.8430000000000002    0.6439999999999999 # O170
  0.7670000000000001    0.5850000000000002    0.7670000000000001 # O171
  0.6120000000000000    0.9399999999999999    0.4999999999999999 # O172
  0.9280000000000000    0.8140000000000003    0.9280000000000000 # O173
  0.8560000000000003    0.6570000000000003    0.8560000000000000 # O174
  0.7330000000000000    0.9150000000000004    0.7330000000000000 # O175
  0.8880000000000000    0.5600000000000001    0.0000000000000000 # O176
  0.4280000000000002    0.3140000000000001    0.4280000000000002 # O177
  0.3560000000000001    0.1570000000000001    0.3560000000000001 # O178
  0.2329999999999998    0.4150000000000001    0.2329999999999998 # O179
  0.3880000000000001    0.0600000000000001    0.4999999999999999 # O180
  0.4400000000000000    0.0000000000000000    0.8880000000000000 # O181
  0.9399999999999999    0.4999999999999999    0.3880000000000001 # O182
  0.5600000000000001    0.0000000000000000    0.1120000000000001 # O183
  0.0600000000000001    0.5000000000000002    0.6120000000000000 # O184
  0.8880000000000000    0.4400000000000000    0.0000000000000000 # O185
  0.3880000000000001    0.9399999999999999    0.4999999999999999 # O186
  0.1120000000000001    0.5600000000000001    0.0000000000000000 # O187
  0.6120000000000000    0.0600000000000001    0.4999999999999999 # O188
  0.8140000000000003    0.0720000000000000    0.9280000000000000 # O189
  0.6570000000000003    0.1440000000000000    0.8560000000000000 # O190
  0.9149999999999999    0.2670000000000000    0.7330000000000000 # O191
  0.3140000000000001    0.5720000000000000    0.4280000000000002 # O192
  0.1570000000000001    0.6439999999999999    0.3560000000000001 # O193
  0.4150000000000001    0.7670000000000001    0.2329999999999998 # O194
  0.1860000000000000    0.9280000000000000    0.0720000000000000 # O195
  0.3430000000000000    0.8560000000000003    0.1440000000000000 # O196
  0.0850000000000000    0.7330000000000000    0.2670000000000000 # O197
  0.6859999999999998    0.4280000000000002    0.5720000000000000 # O198
  0.8430000000000000    0.3560000000000001    0.6439999999999999 # O199
  0.5849999999999999    0.2330000000000002    0.7670000000000001 # O200
  0.0720000000000000    0.8140000000000003    0.9280000000000000 # O201
  0.1440000000000000    0.6570000000000003    0.8560000000000000 # O202
  0.2670000000000000    0.9149999999999999    0.7330000000000000 # O203
  0.5720000000000000    0.3140000000000001    0.4280000000000002 # O204
  0.6439999999999999    0.1570000000000001    0.3560000000000001 # O205
  0.7670000000000001    0.4150000000000001    0.2329999999999998 # O206
  0.9280000000000000    0.1860000000000000    0.0720000000000000 # O207
  0.8560000000000000    0.3430000000000000    0.1440000000000000 # O208
  0.7330000000000000    0.0850000000000000    0.2670000000000000 # O209
  0.4280000000000002    0.6859999999999998    0.5720000000000000 # O210
  0.3560000000000001    0.8430000000000002    0.6439999999999999 # O211
  0.2330000000000002    0.5850000000000002    0.7670000000000001 # O212
  0.0000000000000000    0.4400000000000000    0.1120000000000001 # O213
  0.5000000000000002    0.9399999999999999    0.6120000000000000 # O214
  0.0000000000000000    0.5600000000000003    0.8880000000000000 # O215
  0.4999999999999999    0.0600000000000001    0.3880000000000001 # O216
