$cell vectors
1.0
 16.2559923508729689    0.0000000000000000    0.0000000000000000
  0.0000000000000000   16.2559923508729689    0.0000000000000000
  0.0000000000000000    0.0000000000000000   16.2559923508729689
 24 144 96
Direct
  0.4980999999999999    0.4980999999999999    0.2499999999999999 # Zn1
  0.5018999999999999    0.5019000000000002    0.7499999999999999 # Zn2
  0.0019000000000002    0.4980999999999999    0.2499999999999999 # Zn3
  0.9980999999999999    0.5019000000000002    0.7499999999999999 # Zn4
  0.0018999999999999    0.0019000000000002    0.2499999999999999 # Zn5
  0.9980999999999999    0.9980999999999999    0.7499999999999999 # Zn6
  0.4980999999999999    0.0019000000000002    0.2499999999999999 # Zn7
  0.5019000000000002    0.9980999999999999    0.7499999999999999 # Zn8
  0.4980999999999999    0.2500000000000002    0.4980999999999999 # Zn9
  0.5018999999999999    0.7500000000000002    0.5018999999999999 # Zn10
  0.4980999999999999    0.2499999999999999    0.0018999999999999 # Zn11
  0.5019000000000002    0.7500000000000002    0.9980999999999999 # Zn12
  0.2500000000000002    0.4980999999999999    0.0018999999999999 # Zn13
  0.7500000000000002    0.5019000000000002    0.9980999999999999 # Zn14
  0.2500000000000002    0.4981000000000003    0.4980999999999999 # Zn15
  0.7499999999999999    0.5019000000000002    0.5018999999999999 # Zn16
  0.0019000000000002    0.2500000000000002    0.4980999999999999 # Zn17
  0.9980999999999999    0.7500000000000002    0.5018999999999999 # Zn18
  0.2499999999999999    0.0018999999999999    0.0018999999999999 # Zn19
  0.7500000000000002    0.9981000000000003    0.9980999999999999 # Zn20
  0.0018999999999999    0.2499999999999999    0.0018999999999999 # Zn21
  0.9980999999999999    0.7500000000000002    0.9980999999999999 # Zn22
  0.2499999999999999    0.0019000000000002    0.4980999999999999 # Zn23
  0.7500000000000002    0.9980999999999999    0.5018999999999999 # Zn24
  0.4615000000000001    0.5370000000000001    0.3632000000000001 # O1
  0.3803000000000002    0.4871000000000001    0.1977000000000002 # O2
  0.5039000000000001    0.6190000000000001    0.1998000000000001 # O3
  0.5385000000000001    0.4630000000000001    0.6368000000000000 # O4
  0.6196999999999999    0.5129000000000002    0.8023000000000000 # O5
  0.4961000000000000    0.3810000000000000    0.8002000000000001 # O6
  0.9630000000000000    0.4615000000000001    0.3632000000000001 # O7
  0.0128999999999999    0.3802999999999999    0.1977000000000002 # O8
  0.8810000000000002    0.5039000000000001    0.1998000000000001 # O9
  0.0369999999999999    0.5385000000000001    0.6368000000000000 # O10
  0.9870999999999999    0.6197000000000003    0.8023000000000000 # O11
  0.1190000000000001    0.4961000000000000    0.8002000000000001 # O12
  0.0385000000000000    0.9630000000000000    0.3632000000000001 # O13
  0.1197000000000001    0.0128999999999999    0.1977000000000002 # O14
  0.9960999999999999    0.8810000000000002    0.1998000000000001 # O15
  0.9615000000000001    0.0369999999999999    0.6368000000000000 # O16
  0.8803000000000003    0.9870999999999999    0.8023000000000000 # O17
  0.0039000000000003    0.1190000000000001    0.8002000000000001 # O18
  0.5370000000000001    0.0385000000000000    0.3632000000000001 # O19
  0.4871000000000001    0.1197000000000001    0.1977000000000002 # O20
  0.6190000000000001    0.9960999999999999    0.1998000000000001 # O21
  0.4630000000000001    0.9615000000000001    0.6368000000000000 # O22
  0.5128999999999999    0.8803000000000003    0.8023000000000000 # O23
  0.3810000000000000    0.0039000000000003    0.8002000000000001 # O24
  0.4615000000000001    0.1367999999999999    0.5370000000000001 # O25
  0.3803000000000002    0.3023000000000002    0.4871000000000001 # O26
  0.5039000000000001    0.3002000000000000    0.6190000000000001 # O27
  0.5385000000000001    0.8632000000000002    0.4630000000000001 # O28
  0.6196999999999999    0.6977000000000003    0.5128999999999999 # O29
  0.4961000000000000    0.6997999999999999    0.3810000000000000 # O30
  0.4615000000000001    0.9630000000000000    0.1367999999999999 # O31
  0.3802999999999999    0.0129000000000002    0.3023000000000000 # O32
  0.5039000000000001    0.8810000000000002    0.3002000000000000 # O33
  0.5385000000000001    0.0369999999999999    0.8632000000000002 # O34
  0.6197000000000003    0.9870999999999999    0.6977000000000003 # O35
  0.4961000000000000    0.1190000000000001    0.6997999999999999 # O36
  0.4615000000000001    0.3632000000000001    0.9630000000000000 # O37
  0.3802999999999999    0.1977000000000002    0.0128999999999999 # O38
  0.5039000000000001    0.1998000000000001    0.8810000000000002 # O39
  0.5385000000000001    0.6368000000000000    0.0369999999999999 # O40
  0.6197000000000003    0.8023000000000002    0.9870999999999999 # O41
  0.4961000000000000    0.8002000000000001    0.1190000000000001 # O42
  0.3632000000000001    0.5370000000000001    0.0385000000000000 # O43
  0.1977000000000002    0.4871000000000001    0.1197000000000001 # O44
  0.1998000000000001    0.6190000000000001    0.9960999999999999 # O45
  0.6368000000000000    0.4630000000000001    0.9615000000000001 # O46
  0.8023000000000000    0.5129000000000002    0.8803000000000003 # O47
  0.8002000000000001    0.3810000000000000    0.0038999999999999 # O48
  0.0385000000000000    0.5370000000000001    0.1367999999999999 # O49
  0.1197000000000001    0.4871000000000001    0.3023000000000000 # O50
  0.9960999999999999    0.6190000000000001    0.3002000000000000 # O51
  0.9615000000000001    0.4630000000000001    0.8632000000000002 # O52
  0.8803000000000003    0.5129000000000002    0.6977000000000003 # O53
  0.0038999999999999    0.3810000000000000    0.6997999999999999 # O54
  0.1367999999999999    0.5370000000000001    0.4615000000000001 # O55
  0.3023000000000002    0.4871000000000001    0.3802999999999999 # O56
  0.3002000000000003    0.6190000000000001    0.5039000000000001 # O57
  0.8632000000000002    0.4630000000000001    0.5385000000000001 # O58
  0.6977000000000003    0.5129000000000002    0.6196999999999999 # O59
  0.6997999999999999    0.3810000000000000    0.4961000000000000 # O60
  0.3632000000000001    0.4615000000000001    0.5370000000000001 # O61
  0.1977000000000002    0.3803000000000002    0.4871000000000001 # O62
  0.1998000000000001    0.5039000000000003    0.6190000000000001 # O63
  0.6368000000000000    0.5385000000000001    0.4630000000000001 # O64
  0.8023000000000000    0.6197000000000003    0.5128999999999999 # O65
  0.8002000000000001    0.4961000000000000    0.3810000000000000 # O66
  0.5370000000000001    0.3632000000000001    0.4615000000000001 # O67
  0.4871000000000001    0.1977000000000002    0.3802999999999999 # O68
  0.6190000000000001    0.1998000000000001    0.5039000000000001 # O69
  0.4630000000000001    0.6368000000000000    0.5385000000000001 # O70
  0.5128999999999999    0.8023000000000002    0.6196999999999999 # O71
  0.3810000000000000    0.8002000000000001    0.4961000000000000 # O72
  0.9630000000000000    0.1367999999999999    0.4615000000000001 # O73
  0.0128999999999999    0.3023000000000002    0.3802999999999999 # O74
  0.8810000000000002    0.3002000000000000    0.5039000000000001 # O75
  0.0369999999999999    0.8632000000000002    0.5385000000000001 # O76
  0.9870999999999999    0.6977000000000003    0.6196999999999999 # O77
  0.1190000000000001    0.6998000000000002    0.4961000000000000 # O78
  0.3632000000000001    0.0385000000000000    0.9630000000000000 # O79
  0.1977000000000002    0.1197000000000001    0.0128999999999999 # O80
  0.1998000000000001    0.9960999999999999    0.8810000000000002 # O81
  0.6368000000000000    0.9615000000000001    0.0369999999999999 # O82
  0.8023000000000002    0.8803000000000003    0.9870999999999999 # O83
  0.8002000000000001    0.0038999999999999    0.1190000000000001 # O84
  0.9630000000000000    0.3632000000000001    0.0385000000000000 # O85
  0.0128999999999999    0.1977000000000002    0.1197000000000001 # O86
  0.8810000000000002    0.1998000000000001    0.9960999999999999 # O87
  0.0369999999999999    0.6368000000000000    0.9615000000000001 # O88
  0.9870999999999999    0.8023000000000002    0.8803000000000003 # O89
  0.1190000000000001    0.8002000000000001    0.0039000000000003 # O90
  0.1367999999999999    0.0385000000000000    0.5370000000000001 # O91
  0.3023000000000002    0.1197000000000001    0.4871000000000001 # O92
  0.3002000000000003    0.9960999999999999    0.6190000000000001 # O93
  0.8632000000000002    0.9615000000000001    0.4630000000000001 # O94
  0.6977000000000003    0.8803000000000003    0.5128999999999999 # O95
  0.6997999999999999    0.0038999999999999    0.3810000000000000 # O96
  0.1367999999999999    0.4615000000000001    0.9630000000000000 # O97
  0.3023000000000000    0.3802999999999999    0.0128999999999999 # O98
  0.3002000000000003    0.5039000000000003    0.8810000000000002 # O99
  0.8632000000000002    0.5385000000000001    0.0369999999999999 # O100
  0.6977000000000003    0.6197000000000003    0.9870999999999999 # O101
  0.6997999999999999    0.4961000000000000    0.1190000000000001 # O102
  0.5370000000000001    0.1367999999999999    0.0385000000000000 # O103
  0.4871000000000001    0.3023000000000000    0.1197000000000001 # O104
  0.6190000000000001    0.3002000000000003    0.9960999999999999 # O105
  0.4630000000000001    0.8632000000000002    0.9615000000000001 # O106
  0.5128999999999999    0.6977000000000003    0.8803000000000003 # O107
  0.3810000000000000    0.6997999999999999    0.0038999999999999 # O108
  0.5370000000000001    0.4615000000000001    0.1367999999999999 # O109
  0.4871000000000001    0.3803000000000002    0.3023000000000000 # O110
  0.6190000000000001    0.5039000000000001    0.3002000000000000 # O111
  0.4630000000000001    0.5385000000000001    0.8632000000000002 # O112
  0.5128999999999999    0.6197000000000003    0.6977000000000003 # O113
  0.3810000000000000    0.4961000000000000    0.6997999999999999 # O114
  0.9630000000000000    0.0385000000000000    0.1367999999999999 # O115
  0.0128999999999999    0.1197000000000001    0.3023000000000000 # O116
  0.8810000000000002    0.9960999999999999    0.3002000000000000 # O117
  0.0369999999999999    0.9615000000000001    0.8632000000000002 # O118
  0.9870999999999999    0.8803000000000003    0.6977000000000003 # O119
  0.1190000000000001    0.0038999999999999    0.6997999999999999 # O120
  0.0385000000000000    0.3632000000000001    0.5370000000000001 # O121
  0.1197000000000001    0.1977000000000002    0.4871000000000001 # O122
  0.9960999999999999    0.1998000000000001    0.6190000000000001 # O123
  0.9615000000000001    0.6368000000000000    0.4630000000000001 # O124
  0.8803000000000003    0.8023000000000002    0.5128999999999999 # O125
  0.0039000000000003    0.8002000000000001    0.3810000000000000 # O126
  0.0385000000000000    0.1367999999999999    0.9630000000000000 # O127
  0.1197000000000001    0.3023000000000000    0.0128999999999999 # O128
  0.9960999999999999    0.3002000000000003    0.8810000000000002 # O129
  0.9615000000000001    0.8632000000000002    0.0369999999999999 # O130
  0.8803000000000003    0.6977000000000003    0.9870999999999999 # O131
  0.0039000000000003    0.6997999999999999    0.1190000000000001 # O132
  0.3632000000000001    0.9630000000000000    0.4615000000000001 # O133
  0.1977000000000002    0.0128999999999999    0.3802999999999999 # O134
  0.1998000000000001    0.8810000000000002    0.5039000000000001 # O135
  0.6368000000000004    0.0369999999999999    0.5385000000000001 # O136
  0.8023000000000002    0.9870999999999999    0.6196999999999999 # O137
  0.8002000000000001    0.1190000000000001    0.4961000000000000 # O138
  0.1367999999999999    0.9630000000000000    0.0385000000000000 # O139
  0.3023000000000000    0.0128999999999999    0.1197000000000001 # O140
  0.3002000000000003    0.8810000000000002    0.9960999999999999 # O141
  0.8632000000000002    0.0369999999999999    0.9615000000000001 # O142
  0.6977000000000003    0.9871000000000003    0.8803000000000003 # O143
  0.6997999999999999    0.1190000000000001    0.0039000000000003 # O144
  0.3092000000000000    0.4847000000000000    0.2271000000000000 # C1
  0.5008999999999999    0.6906000000000001    0.2281000000000000 # C2
  0.6908000000000002    0.5153000000000002    0.7729000000000001 # C3
  0.4990999999999999    0.3094000000000000    0.7719000000000001 # C4
  0.0153000000000001    0.3092000000000000    0.2271000000000000 # C5
  0.8094000000000001    0.5008999999999999    0.2281000000000000 # C6
  0.9847000000000000    0.6908000000000002    0.7729000000000001 # C7
  0.1906000000000000    0.4991000000000002    0.7719000000000001 # C8
  0.1908000000000001    0.0152999999999998    0.2271000000000000 # C9
  0.9990999999999999    0.8094000000000001    0.2281000000000000 # C10
  0.8092000000000004    0.9847000000000000    0.7729000000000001 # C11
  0.0009000000000002    0.1906000000000000    0.7719000000000001 # C12
  0.4847000000000000    0.1908000000000001    0.2271000000000000 # C13
  0.6906000000000001    0.9990999999999999    0.2281000000000000 # C14
  0.5153000000000002    0.8092000000000000    0.7728999999999998 # C15
  0.3094000000000000    0.0009000000000002    0.7718999999999997 # C16
  0.3092000000000000    0.2729000000000001    0.4847000000000000 # C17
  0.5008999999999999    0.2719000000000001    0.6906000000000001 # C18
  0.6908000000000002    0.7271000000000000    0.5153000000000002 # C19
  0.4990999999999999    0.7281000000000001    0.3094000000000000 # C20
  0.3092000000000000    0.0152999999999998    0.2729000000000001 # C21
  0.5008999999999999    0.8094000000000001    0.2719000000000001 # C22
  0.6908000000000002    0.9847000000000000    0.7271000000000000 # C23
  0.4990999999999999    0.1906000000000000    0.7281000000000001 # C24
  0.3092000000000000    0.2271000000000000    0.0153000000000001 # C25
  0.5008999999999999    0.2281000000000000    0.8094000000000001 # C26
  0.6908000000000002    0.7729000000000001    0.9847000000000000 # C27
  0.4990999999999999    0.7719000000000001    0.1906000000000000 # C28
  0.2271000000000000    0.4847000000000000    0.1908000000000001 # C29
  0.2281000000000000    0.6906000000000001    0.9990999999999999 # C30
  0.7729000000000001    0.5153000000000002    0.8092000000000000 # C31
  0.7719000000000001    0.3094000000000000    0.0009000000000002 # C32
  0.1908000000000001    0.4847000000000002    0.2729000000000001 # C33
  0.9990999999999999    0.6906000000000001    0.2719000000000001 # C34
  0.8092000000000000    0.5153000000000002    0.7271000000000000 # C35
  0.0009000000000002    0.3094000000000000    0.7281000000000001 # C36
  0.2729000000000001    0.4847000000000002    0.3092000000000000 # C37
  0.2719000000000001    0.6906000000000001    0.5008999999999999 # C38
  0.7271000000000000    0.5153000000000002    0.6908000000000002 # C39
  0.7281000000000001    0.3094000000000000    0.4990999999999999 # C40
  0.2271000000000000    0.3092000000000000    0.4847000000000000 # C41
  0.2281000000000000    0.5009000000000002    0.6906000000000001 # C42
  0.7729000000000001    0.6908000000000002    0.5153000000000002 # C43
  0.7719000000000001    0.4990999999999999    0.3094000000000000 # C44
  0.4847000000000000    0.2271000000000000    0.3092000000000000 # C45
  0.6906000000000001    0.2281000000000000    0.5008999999999999 # C46
  0.5153000000000002    0.7729000000000001    0.6908000000000002 # C47
  0.3094000000000000    0.7719000000000001    0.4990999999999999 # C48
  0.0153000000000001    0.2729000000000001    0.3092000000000000 # C49
  0.8094000000000001    0.2719000000000001    0.5008999999999999 # C50
  0.9847000000000000    0.7271000000000000    0.6908000000000002 # C51
  0.1906000000000000    0.7281000000000001    0.4990999999999999 # C52
  0.2271000000000000    0.1908000000000001    0.0153000000000001 # C53
  0.2281000000000000    0.9990999999999999    0.8094000000000001 # C54
  0.7729000000000001    0.8092000000000004    0.9847000000000000 # C55
  0.7719000000000001    0.0009000000000002    0.1906000000000000 # C56
  0.0153000000000001    0.2271000000000000    0.1908000000000001 # C57
  0.8094000000000001    0.2281000000000000    0.9990999999999999 # C58
  0.9847000000000000    0.7729000000000001    0.8092000000000000 # C59
  0.1906000000000000    0.7719000000000001    0.0009000000000002 # C60
  0.2729000000000001    0.1908000000000001    0.4847000000000000 # C61
  0.2719000000000001    0.9990999999999999    0.6906000000000001 # C62
  0.7271000000000000    0.8092000000000000    0.5153000000000002 # C63
  0.7281000000000001    0.0009000000000002    0.3094000000000000 # C64
  0.2729000000000001    0.3092000000000000    0.0153000000000001 # C65
  0.2719000000000001    0.5009000000000002    0.8094000000000001 # C66
  0.7271000000000000    0.6908000000000002    0.9847000000000000 # C67
  0.7281000000000001    0.4990999999999999    0.1906000000000000 # C68
  0.4847000000000000    0.2729000000000001    0.1908000000000001 # C69
  0.6906000000000001    0.2719000000000001    0.9990999999999999 # C70
  0.5153000000000002    0.7271000000000000    0.8092000000000000 # C71
  0.3094000000000000    0.7281000000000001    0.0009000000000002 # C72
  0.4847000000000000    0.3092000000000000    0.2729000000000001 # C73
  0.6906000000000001    0.5008999999999999    0.2719000000000001 # C74
  0.5153000000000002    0.6908000000000002    0.7271000000000000 # C75
  0.3094000000000000    0.4991000000000002    0.7281000000000001 # C76
  0.0153000000000001    0.1908000000000001    0.2729000000000001 # C77
  0.8094000000000001    0.9990999999999999    0.2719000000000001 # C78
  0.9847000000000000    0.8092000000000000    0.7271000000000000 # C79
  0.1906000000000000    0.0009000000000002    0.7281000000000001 # C80
  0.1908000000000001    0.2271000000000000    0.4847000000000000 # C81
  0.9990999999999999    0.2281000000000000    0.6906000000000001 # C82
  0.8092000000000000    0.7729000000000001    0.5153000000000002 # C83
  0.0009000000000002    0.7719000000000001    0.3094000000000000 # C84
  0.1908000000000001    0.2729000000000001    0.0153000000000001 # C85
  0.9990999999999999    0.2719000000000001    0.8094000000000001 # C86
  0.8092000000000000    0.7271000000000003    0.9847000000000000 # C87
  0.0009000000000002    0.7281000000000001    0.1906000000000000 # C88
  0.2271000000000000    0.0152999999999998    0.3092000000000000 # C89
  0.2281000000000000    0.8094000000000001    0.5008999999999999 # C90
  0.7729000000000001    0.9847000000000000    0.6908000000000002 # C91
  0.7719000000000001    0.1906000000000000    0.4990999999999999 # C92
  0.2729000000000001    0.0152999999999998    0.1908000000000001 # C93
  0.2719000000000001    0.8094000000000001    0.9990999999999999 # C94
  0.7271000000000000    0.9847000000000002    0.8092000000000000 # C95
  0.7281000000000001    0.1906000000000000    0.0009000000000002 # C96
