Li8Fe8B8O24                             
   1.00000000000000     
     5.1896717218247641    0.0000000000000000   -0.0189686341521314
     0.0000000000000000    9.1276864679946002    0.0000000000000000
    -0.2840727811367046    0.0000000000000000   10.3538966582196892
   8   8   8  24
Direct
  0.1680321311868838  0.4921359179247418  0.1552609574603068
  0.6680321311868838  0.9921359179247418  0.1552609574603068
  0.8319678688131162  0.4921359179247418  0.3447390425396932
  0.3319678688131162  0.9921359179247418  0.3447390425396932
  0.1680321311868838  0.5078640820752582  0.6552609574603068
  0.6680321311868838  0.0078640820752582  0.6552609574603068
  0.8319678688131162  0.5078640820752582  0.8447390425396932
  0.3319678688131162  0.0078640820752582  0.8447390425396932
  0.1610418360745243  0.1609376151836912  0.1198205759274416
  0.6610418360745243  0.6609376151836912  0.1198205759274416
  0.8389581639254757  0.1609376151836912  0.3801794240725584
  0.3389581639254757  0.6609376151836912  0.3801794240725584
  0.1610418360745243  0.8390623848163088  0.6198205759274416
  0.6610418360745243  0.3390623848163088  0.6198205759274416
  0.8389581639254757  0.8390623848163088  0.8801794240725584
  0.3389581639254757  0.3390623848163088  0.8801794240725584
  0.1586401653095066  0.8312293926917533  0.1292794808190365
  0.6586401653095066  0.3312293926917533  0.1292794808190365
  0.8413598346904934  0.8312293926917533  0.3707205191809635
  0.3413598346904934  0.3312293926917533  0.3707205191809635
  0.1586401653095066  0.1687706073082467  0.6292794808190365
  0.6586401653095066  0.6687706073082467  0.6292794808190365
  0.8413598346904934  0.1687706073082467  0.8707205191809635
  0.3413598346904934  0.6687706073082467  0.8707205191809635
  0.7983610938570394  0.4602821060692150  0.1441169851547386
  0.2983610938570394  0.9602821060692150  0.1441169851547386
  0.2016389061429606  0.4602821060692150  0.3558830148452614
  0.7016389061429606  0.9602821060692150  0.3558830148452614
  0.7983610938570394  0.5397178939307850  0.6441169851547315
  0.2983610938570394  0.0397178939307850  0.6441169851547315
  0.2016389061429606  0.5397178939307850  0.8558830148452685
  0.7016389061429606  0.0397178939307850  0.8558830148452685
  0.8983141053721511  0.8387090739264877  0.0902747669649813
  0.3983141053721511  0.3387090739264877  0.0902747669649813
  0.1016858946278489  0.8387090739264877  0.4097252330350187
  0.6016858946278489  0.3387090739264877  0.4097252330350187
  0.8983141053721511  0.1612909260735123  0.5902747669649813
  0.3983141053721511  0.6612909260735123  0.5902747669649813
  0.1016858946278489  0.1612909260735123  0.9097252330350187
  0.6016858946278489  0.6612909260735123  0.9097252330350187
  0.7757662241826537  0.1977398827078076  0.1570560850705860
  0.2757662241826537  0.6977398827078076  0.1570560850705860
  0.2242337758173463  0.1977398827078076  0.3429439149294140
  0.7242337758173463  0.6977398827078076  0.3429439149294140
  0.7757662241826537  0.8022601172921924  0.6570560850705860
  0.2757662241826537  0.3022601172921924  0.6570560850705860
  0.2242337758173463  0.8022601172921924  0.8429439149294140
  0.7242337758173463  0.3022601172921924  0.8429439149294140
 
  0.00000000E+00  0.00000000E+00  0.00000000E+00
  0.00000000E+00  0.00000000E+00  0.00000000E+00
  0.00000000E+00  0.00000000E+00  0.00000000E+00
  0.00000000E+00  0.00000000E+00  0.00000000E+00
  0.00000000E+00  0.00000000E+00  0.00000000E+00
  0.00000000E+00  0.00000000E+00  0.00000000E+00
  0.00000000E+00  0.00000000E+00  0.00000000E+00
  0.00000000E+00  0.00000000E+00  0.00000000E+00
  0.00000000E+00  0.00000000E+00  0.00000000E+00
  0.00000000E+00  0.00000000E+00  0.00000000E+00
  0.00000000E+00  0.00000000E+00  0.00000000E+00
  0.00000000E+00  0.00000000E+00  0.00000000E+00
  0.00000000E+00  0.00000000E+00  0.00000000E+00
  0.00000000E+00  0.00000000E+00  0.00000000E+00
  0.00000000E+00  0.00000000E+00  0.00000000E+00
  0.00000000E+00  0.00000000E+00  0.00000000E+00
  0.00000000E+00  0.00000000E+00  0.00000000E+00
  0.00000000E+00  0.00000000E+00  0.00000000E+00
  0.00000000E+00  0.00000000E+00  0.00000000E+00
  0.00000000E+00  0.00000000E+00  0.00000000E+00
  0.00000000E+00  0.00000000E+00  0.00000000E+00
  0.00000000E+00  0.00000000E+00  0.00000000E+00
  0.00000000E+00  0.00000000E+00  0.00000000E+00
  0.00000000E+00  0.00000000E+00  0.00000000E+00
  0.00000000E+00  0.00000000E+00  0.00000000E+00
  0.00000000E+00  0.00000000E+00  0.00000000E+00
  0.00000000E+00  0.00000000E+00  0.00000000E+00
  0.00000000E+00  0.00000000E+00  0.00000000E+00
  0.00000000E+00  0.00000000E+00  0.00000000E+00
  0.00000000E+00  0.00000000E+00  0.00000000E+00
  0.00000000E+00  0.00000000E+00  0.00000000E+00
  0.00000000E+00  0.00000000E+00  0.00000000E+00
  0.00000000E+00  0.00000000E+00  0.00000000E+00
  0.00000000E+00  0.00000000E+00  0.00000000E+00
  0.00000000E+00  0.00000000E+00  0.00000000E+00
  0.00000000E+00  0.00000000E+00  0.00000000E+00
  0.00000000E+00  0.00000000E+00  0.00000000E+00
  0.00000000E+00  0.00000000E+00  0.00000000E+00
  0.00000000E+00  0.00000000E+00  0.00000000E+00
  0.00000000E+00  0.00000000E+00  0.00000000E+00
  0.00000000E+00  0.00000000E+00  0.00000000E+00
  0.00000000E+00  0.00000000E+00  0.00000000E+00
  0.00000000E+00  0.00000000E+00  0.00000000E+00
  0.00000000E+00  0.00000000E+00  0.00000000E+00
  0.00000000E+00  0.00000000E+00  0.00000000E+00
  0.00000000E+00  0.00000000E+00  0.00000000E+00
  0.00000000E+00  0.00000000E+00  0.00000000E+00
  0.00000000E+00  0.00000000E+00  0.00000000E+00
