$cell vectors
1.0
 16.4529922581762413    0.0000000000000000    0.0000000000000000
  0.0000000000000000    5.4049974567217269    0.0000000000000000
 -2.0448445973693867    0.0000000000000000   12.9252406328975358
 20 60 20
Direct
  0.5000000000000001    0.8117000000000009    0.5000000000000002 # P1
  0.5923999999999999    0.1525999999999998    0.3871000000000003 # P2
  0.6974000000000000    0.8092000000000000    0.2959000000000001 # P3
  0.8091000000000000    0.1719000000000005    0.2179000000000001 # P4
  0.9080999999999998    0.8398000000000007    0.1149999999999998 # P5
  0.0732999999999999    0.1580999999999998    0.4086000000000000 # P6
  0.1743000000000002    0.8247000000000000    0.3101999999999999 # P7
  0.2865999999999999    0.1884000000000005    0.2316000000000000 # P8
  0.3898000000000001    0.8475000000000005    0.1381000000000000 # P9
  0.4815999999999999    0.1899000000000002    0.0219000000000000 # P10
  0.0000000000000000    0.1883000000000002    0.0000000000000000 # P11
  0.0924000000000002    0.8474000000000000    0.8871000000000000 # P12
  0.1974000000000000    0.1907999999999999    0.7959000000000004 # P13
  0.3090999999999999    0.8281000000000005    0.7178999999999999 # P14
  0.4081000000000001    0.1602000000000003    0.6150000000000000 # P15
  0.5732999999999999    0.8419000000000000    0.9086000000000002 # P16
  0.6742999999999999    0.1753000000000000    0.8102000000000001 # P17
  0.7866000000000000    0.8116000000000004    0.7316000000000003 # P18
  0.8897999999999998    0.1525000000000005    0.6380999999999998 # P19
  0.9815999999999999    0.8100999999999999    0.5219000000000001 # P20
  0.5376000000000001    0.9559000000000005    0.4057999999999998 # O1
  0.6419999999999997    0.0513999999999999    0.2993999999999998 # O2
  0.7772000000000002    0.9187999999999998    0.2546000000000002 # O3
  0.8947999999999998    0.0786000000000000    0.1861000000000000 # O4
  0.4788999999999999    0.0544000000000002    0.5552000000000002 # O5
  0.0903999999999999    0.9228000000000004    0.3418999999999999 # O6
  0.2086000000000001    0.0842000000000003    0.2705000000000000 # O7
  0.3433000000000002    0.9473000000000000    0.2284000000000000 # O8
  0.4445999999999999    0.0822000000000002    0.1207999999999999 # O9
  0.0024000000000002    0.0648999999999997    0.4676999999999999 # O10
  0.4243999999999999    0.6757000000000002    0.4579999999999998 # O11
  0.5665000000000001    0.6880000000000003    0.5713000000000001 # O12
  0.5400000000000000    0.3553999999999999    0.3366000000000002 # O13
  0.6516999999999999    0.2026999999999997    0.4834000000000000 # O14
  0.6537999999999999    0.6428999999999998    0.2132999999999998 # O15
  0.7226999999999998    0.7169000000000006    0.4033000000000001 # O16
  0.7527000000000001    0.2455000000000001    0.1238000000000001 # O17
  0.8294000000000001    0.3495000000000006    0.3014000000000000 # O18
  0.8332999999999998    0.7832999999999999    0.0433000000000001 # O19
  0.9455999999999999    0.6418000000000004    0.1833999999999999 # O20
  0.0368000000000001    0.3559000000000004    0.3366000000000002 # O21
  0.1507000000000000    0.2112000000000000    0.4845000000000001 # O22
  0.1523999999999999    0.6592000000000002    0.2176000000000000 # O23
  0.2277000000000001    0.7359000000000003    0.4054000000000000 # O24
  0.2594000000000000    0.2757000000000004    0.1244000000000000 # O25
  0.3276999999999999    0.3601000000000004    0.3072000000000000 # O26
  0.3298000000000001    0.7979000000000002    0.0439000000000000 # O27
  0.4455999999999999    0.6511000000000002    0.1853000000000000 # O28
  0.4185000000000000    0.3264000000000002    0.9509999999999997 # O29
  0.5574999999999998    0.3242999999999998    0.0794999999999999 # O30
  0.0376000000000000    0.0441000000000004    0.9058000000000000 # O31
  0.1419999999999998    0.9486000000000000    0.7994000000000001 # O32
  0.2772000000000001    0.0812000000000001    0.7545999999999999 # O33
  0.3948000000000001    0.9213999999999999    0.6861000000000002 # O34
  0.9789000000000000    0.9456000000000007    0.0552000000000000 # O35
  0.5903999999999999    0.0772000000000007    0.8419000000000001 # O36
  0.7086000000000001    0.9158000000000006    0.7705000000000002 # O37
  0.8432999999999998    0.0527000000000000    0.7283999999999998 # O38
  0.9445999999999999    0.9177999999999997    0.6208000000000000 # O39
  0.5024000000000000    0.9351000000000003    0.9677000000000002 # O40
  0.9243999999999999    0.3243000000000007    0.9580000000000001 # O41
  0.0665000000000000    0.3119999999999997    0.0712999999999999 # O42
  0.0400000000000000    0.6446000000000001    0.8365999999999999 # O43
  0.1517000000000001    0.7973000000000002    0.9834000000000002 # O44
  0.1538000000000000    0.3571000000000002    0.7133000000000000 # O45
  0.2227000000000000    0.2831000000000004    0.9033000000000001 # O46
  0.2526999999999999    0.7544999999999999    0.6237999999999999 # O47
  0.3294000000000000    0.6505000000000004    0.8014000000000001 # O48
  0.3332999999999998    0.2167000000000000    0.5432999999999999 # O49
  0.4455999999999998    0.3582000000000005    0.6834000000000002 # O50
  0.5368000000000001    0.6441000000000004    0.8365999999999999 # O51
  0.6506999999999999    0.7887999999999999    0.9844999999999999 # O52
  0.6524000000000000    0.3407999999999998    0.7176000000000002 # O53
  0.7277000000000001    0.2641000000000006    0.9053999999999999 # O54
  0.7594000000000000    0.7243000000000006    0.6244000000000000 # O55
  0.8276999999999999    0.6399000000000006    0.8071999999999999 # O56
  0.8297999999999999    0.2020999999999999    0.5439000000000003 # O57
  0.9456000000000001    0.3488999999999998    0.6853000000000001 # O58
  0.9184999999999998    0.6735999999999998    0.4510000000000001 # O59
  0.0575000000000001    0.6757000000000002    0.5795000000000001 # O60
  0.3173999999999997    0.5069999999999996    0.4469000000000000 # Li1
  0.4339000000000000    0.5199999999999999    0.3236000000000002 # Li2
  0.5496999999999997    0.4930000000000003    0.2016000000000001 # Li3
  0.6651000000000000    0.4930000000000003    0.0826999999999999 # Li4
  0.7428999999999999    0.0069999999999996    0.0134000000000002 # Li5
  0.8184000000000002    0.4800000000000002    0.4438000000000001 # Li6
  0.9332000000000000    0.5220000000000000    0.3227000000000001 # Li7
  0.0505999999999999    0.4620000000000004    0.2034000000000001 # Li8
  0.1678999999999999    0.5250000000000002    0.0813000000000000 # Li9
  0.2459999999999999    0.0396999999999998    0.0081000000000000 # Li10
  0.8174000000000001    0.4930000000000003    0.9469000000000001 # Li11
  0.9339000000000001    0.4800000000000002    0.8235999999999999 # Li12
  0.0497000000000001    0.5070000000000007    0.7015999999999999 # Li13
  0.1651000000000000    0.5070000000000007    0.5827000000000001 # Li14
  0.2429000000000002    0.9930000000000003    0.5134000000000000 # Li15
  0.3184000000000001    0.5200000000000008    0.9437999999999999 # Li16
  0.4331999999999999    0.4780000000000000    0.8226999999999999 # Li17
  0.5506000000000000    0.5380000000000005    0.7034000000000000 # Li18
  0.6679000000000000    0.4750000000000007    0.5813000000000003 # Li19
  0.7459999999999999    0.9603000000000002    0.5081000000000001 # Li20
