$cell vectors
1.0
  7.0129967000905600    0.0000000000000000    0.0000000000000000
  0.0000000000000000    9.5389955115020459    0.0000000000000000
 -0.2256254105124980    0.0000000000000000    4.8747790475873298
 2 4 2 18
Direct
  0.1885999999999999    0.2500000000000002    0.3101000000000001 # Te1
  0.8113999999999993    0.7500000000000004    0.6898999999999998 # Te2
  0.0544000000000000    0.5751999999999999    0.2551999999999995 # Al1
  0.9455999999999999    0.4248000000000001    0.7447999999999995 # Al2
  0.9455999999999999    0.0752000000000002    0.7447999999999995 # Al3
  0.0544000000000000    0.9248000000000000    0.2551999999999995 # Al4
  0.6069000000000000    0.2500000000000002    0.9622999999999996 # S1
  0.3931000000000000    0.7500000000000004    0.0377000000000004 # S2
  0.9939999999999997    0.2500000000000002    0.5800999999999997 # O1
  0.0685999999999997    0.3920000000000003    0.0887000000000004 # O2
  0.1681999999999999    0.4846000000000001    0.5657000000000001 # O3
  0.4057999999999997    0.2500000000000002    0.8663000000000004 # O4
  0.6249999999999999    0.2500000000000002    0.2618999999999996 # O5
  0.7030999999999996    0.3760000000000002    0.8528000000000006 # O6
  0.0060000000000003    0.7499999999999999    0.4199000000000003 # O7
  0.9313999999999995    0.6080000000000003    0.9112999999999994 # O8
  0.8318000000000001    0.5153999999999999    0.4342999999999999 # O9
  0.5941999999999996    0.7500000000000004    0.1336999999999996 # O10
  0.3750000000000001    0.7500000000000004    0.7380999999999992 # O11
  0.2969000000000003    0.6239999999999998    0.1471999999999996 # O12
  0.9313999999999995    0.8919999999999999    0.9112999999999994 # O13
  0.8318000000000001    0.9845999999999998    0.4342999999999999 # O14
  0.2969000000000003    0.8759999999999999    0.1471999999999996 # O15
  0.0685999999999997    0.1080000000000000    0.0887000000000004 # O16
  0.1681999999999999    0.0154000000000002    0.5657000000000001 # O17
  0.7030999999999996    0.1240000000000000    0.8528000000000006 # O18
