$cell vectors
1.0
 11.8809944094932192    0.0000000000000000    0.0000000000000000
  0.0000000000000000    7.3439965443412314    0.0000000000000000
 -4.3146051628917297    0.0000000000000000   10.9420608705358156
 4 16 12
Direct
  0.2391999999999999    0.1249999999999999    0.2335000000000002 # Pb1
  0.7581999999999997    0.8791000000000004    0.2534000000000001 # Pb2
  0.7607999999999997    0.6250000000000003    0.7664999999999998 # Pb3
  0.2417999999999999    0.3791000000000000    0.7466000000000000 # Pb4
  0.8502999999999998    0.1316000000000002    0.6712000000000000 # Cs1
  0.1628000000000000    0.9026000000000001    0.8286000000000001 # Cs2
  0.5781000000000001    0.8272000000000008    0.4570000000000001 # Cs3
  0.5764999999999998    0.6881000000000004    0.9598000000000001 # Cs4
  0.9296999999999999    0.9274000000000006    0.0416999999999998 # Cs5
  0.0598000000000000    0.0982000000000001    0.4557000000000003 # Cs6
  0.6238999999999999    0.3496000000000004    0.3583000000000000 # Cs7
  0.3655000000000001    0.6865000000000003    0.1447000000000002 # Cs8
  0.1496999999999999    0.6315999999999998    0.3287999999999999 # Cs9
  0.8371999999999997    0.4026000000000004    0.1713999999999999 # Cs10
  0.4219000000000001    0.3272000000000004    0.5429999999999999 # Cs11
  0.4234999999999999    0.1880999999999999    0.0401999999999999 # Cs12
  0.0702999999999999    0.4274000000000007    0.9583000000000002 # Cs13
  0.9401999999999999    0.5982000000000005    0.5443000000000001 # Cs14
  0.3760999999999998    0.8496000000000009    0.6417000000000000 # Cs15
  0.6345000000000003    0.1865000000000005    0.8553000000000003 # Cs16
  0.3653000000000001    0.3410000000000000    0.2661000000000000 # O1
  0.0750000000000000    0.2446000000000004    0.2248000000000003 # O2
  0.2932999999999998   -0.0213999999999996    0.3979000000000002 # O3
  0.6355000000000000    0.6671000000000001    0.2355000000000002 # O4
  0.6828999999999998    1.0614000000000001    0.1026000000000002 # O5
  0.7930999999999999    1.0245000000000002    0.4191999999999999 # O6
  0.6347000000000000    0.8410000000000004    0.7338999999999999 # O7
  0.9249999999999996    0.7446000000000007    0.7752000000000001 # O8
  0.7067000000000000    0.4786000000000008    0.6021000000000003 # O9
  0.3645000000000000    0.1671000000000004    0.7645000000000003 # O10
  0.3171000000000000    0.5614000000000006    0.8974000000000002 # O11
  0.2069000000000001    0.5245000000000005    0.5808000000000001 # O12
