Li4Fe4B4O12                             
   1.00000000000000     
     2.5948358609123821   -4.5638432339973001   -0.0094843170760657
     2.5948358609123821    4.5638432339973001   -0.0094843170760657
    -0.2840727811367046    0.0000000000000000   10.3538966582196892
   4   4   4  12
Direct
  0.6762007114510595  0.6601414010736590  0.1552450226585904
  0.3398585989263694  0.3237992885489334  0.3447549773413954
  0.6601414010736590  0.6762007114510595  0.6552450226585691
  0.3237992885489334  0.3398585989263694  0.8447549773414309
  0.0002886314416344  0.3218844603697306  0.1198420886062550
  0.6781155396302765  0.9997113685583656  0.3801579113937379
  0.3218844603697306  0.0002886314416344  0.6198420886062479
  0.9997113685583656  0.6781155396302765  0.8801579113937521
  0.3277387899051547  0.9899446589053795  0.1293153271916410
  0.0100553410946276  0.6722612100948453  0.3706846728083733
  0.9899446589053795  0.3277387899051547  0.6293153271916765
  0.6722612100948453  0.0100553410946276  0.8706846728083235
  0.3383953031073403  0.2587306983255573  0.1441791077346508
  0.7412693016744498  0.6616046968926597  0.3558208922653705
  0.2587306983255573  0.3383953031073403  0.6441791077346366
  0.6616046968926597  0.7412693016744498  0.8558208922653634
  0.0601080113412351  0.7370959626406730  0.0902398000492184
  0.2629040373592986  0.9398919886587720  0.4097601999507603
  0.7370959626406730  0.0601080113412351  0.5902398000492468
  0.9398919886587720  0.2629040373592986  0.9097601999507532
  0.5782354491623778  0.9734489956834835  0.1571417553220016
  0.0265510043165094  0.4217645508376293  0.3428582446779984
  0.9734489956834835  0.5782354491623778  0.6571417553220087
  0.4217645508376293  0.0265510043165094  0.8428582446779913
 
  0.00000000E+00  0.00000000E+00  0.00000000E+00
  0.00000000E+00  0.00000000E+00  0.00000000E+00
  0.00000000E+00  0.00000000E+00  0.00000000E+00
  0.00000000E+00  0.00000000E+00  0.00000000E+00
  0.00000000E+00  0.00000000E+00  0.00000000E+00
  0.00000000E+00  0.00000000E+00  0.00000000E+00
  0.00000000E+00  0.00000000E+00  0.00000000E+00
  0.00000000E+00  0.00000000E+00  0.00000000E+00
  0.00000000E+00  0.00000000E+00  0.00000000E+00
  0.00000000E+00  0.00000000E+00  0.00000000E+00
  0.00000000E+00  0.00000000E+00  0.00000000E+00
  0.00000000E+00  0.00000000E+00  0.00000000E+00
  0.00000000E+00  0.00000000E+00  0.00000000E+00
  0.00000000E+00  0.00000000E+00  0.00000000E+00
  0.00000000E+00  0.00000000E+00  0.00000000E+00
  0.00000000E+00  0.00000000E+00  0.00000000E+00
  0.00000000E+00  0.00000000E+00  0.00000000E+00
  0.00000000E+00  0.00000000E+00  0.00000000E+00
  0.00000000E+00  0.00000000E+00  0.00000000E+00
  0.00000000E+00  0.00000000E+00  0.00000000E+00
  0.00000000E+00  0.00000000E+00  0.00000000E+00
  0.00000000E+00  0.00000000E+00  0.00000000E+00
  0.00000000E+00  0.00000000E+00  0.00000000E+00
  0.00000000E+00  0.00000000E+00  0.00000000E+00
