ALGO = Normal
EDIFF = 1e-06
ENCUT = 520
IBRION = -1
ICHARG = 0
ISIF = 3
ISMEAR = -5
ISPIN = 2
ISYM = 0
LASPH = True
LORBIT = 11
LREAL = Auto
LWAVE = True
MAGMOM = 2*0.0
NBANDS = 8
NELM = 100
NPAR = 12
NSW = 0
PREC = Accurate
SIGMA = 0.05
