H2
1.0
   0.5000000000000000   -0.8660254037844390    0.0000000000000000
   0.5000000000000000    0.8660254037844390    0.0000000000000000
   0.0000000000000000    0.0000000000000000    1.6329931618554521
H
2
direct
   0.0000000000000000    0.0000000000000000    0.0000000000000000 H
   0.3333333333333330   -0.3333333333333330    0.5000000000000000 H

