Al2 N2
1.0
   1.5642940000000001   -2.7094369999999999    0.0000000000000000
   1.5642940000000001    2.7094369999999999    0.0000000000000000
   0.0000000000000000    0.0000000000000000    5.0169550000000003
Al N
2 2
direct
   0.6666670000000000    0.3333330000000000    0.4992870000000000 Al
   0.3333330000000000    0.6666670000000000    0.9992870000000000 Al
   0.6666670000000000    0.3333330000000000    0.8807130000000000 N
   0.3333330000000000    0.6666670000000000    0.3807130000000000 N
