group 2
   1.00000000000000
     10.0000000000000000     0.0000000000000000     0.0000000000000000
      0.0000000000000000    10.0000000000000000     0.0000000000000000
      0.0000000000000000     0.0000000000000000    10.0000000000000000
  24  24
Direct
  0.1414200000000000  0.2236000000000000  0.3316600000000000
  0.8585800000000000  0.7764000000000000  0.3316600000000000
  0.8585800000000000  0.2236000000000000  0.6683400000000000
  0.1414200000000000  0.7764000000000000  0.6683400000000000
  0.3316600000000000  0.1414200000000000  0.2236000000000000
  0.3316600000000000  0.8585800000000000  0.7764000000000000
  0.6683400000000000  0.8585800000000000  0.2236000000000000
  0.6683400000000000  0.1414200000000000  0.7764000000000000
  0.2236000000000000  0.3316600000000000  0.1414200000000000
  0.7764000000000000  0.3316600000000000  0.8585800000000000
  0.2236000000000000  0.6683400000000000  0.8585800000000000
  0.7764000000000000  0.6683400000000000  0.1414200000000000
  0.8585800000000000  0.7764000000000000  0.6683400000000000
  0.1414200000000000  0.2236000000000000  0.6683400000000000
  0.1414200000000000  0.7764000000000000  0.3316600000000000
  0.8585800000000000  0.2236000000000000  0.3316600000000000
  0.6683400000000000  0.8585800000000000  0.7764000000000000
  0.6683400000000000  0.1414200000000000  0.2236000000000000
  0.3316600000000000  0.1414200000000000  0.7764000000000000
  0.3316600000000000  0.8585800000000000  0.2236000000000000
  0.7764000000000000  0.6683400000000000  0.8585800000000000
  0.2236000000000000  0.6683400000000000  0.1414200000000000
  0.7764000000000000  0.3316600000000000  0.1414200000000000
  0.2236000000000000  0.3316600000000000  0.8585800000000000
  0.2236000000000000  0.1414200000000000  0.6683400000000000
  0.7764000000000000  0.8585800000000000  0.6683400000000000
  0.2236000000000000  0.8585800000000000  0.3316600000000000
  0.7764000000000000  0.1414200000000000  0.3316600000000000
  0.1414200000000000  0.3316600000000000  0.7764000000000000
  0.8585800000000000  0.3316600000000000  0.2236000000000000
  0.8585800000000000  0.6683400000000000  0.7764000000000000
  0.1414200000000000  0.6683400000000000  0.2236000000000000
  0.3316600000000000  0.2236000000000000  0.8585800000000000
  0.3316600000000000  0.7764000000000000  0.1414200000000000
  0.6683400000000000  0.2236000000000000  0.1414200000000000
  0.6683400000000000  0.7764000000000000  0.8585800000000000
  0.7764000000000000  0.8585800000000000  0.3316600000000000
  0.2236000000000000  0.1414200000000000  0.3316600000000000
  0.7764000000000000  0.1414200000000000  0.6683400000000000
  0.2236000000000000  0.8585800000000000  0.6683400000000000
  0.8585800000000000  0.6683400000000000  0.2236000000000000
  0.1414200000000000  0.6683400000000000  0.7764000000000000
  0.1414200000000000  0.3316600000000000  0.2236000000000000
  0.8585800000000000  0.3316600000000000  0.7764000000000000
  0.6683400000000000  0.7764000000000000  0.1414200000000000
  0.6683400000000000  0.2236000000000000  0.8585800000000000
  0.3316600000000000  0.7764000000000000  0.8585800000000000
  0.3316600000000000  0.2236000000000000  0.1414200000000000
