pymatgen with grid density = 429 / number of atoms
0
Gamma
2 2 5
