#P HF/6-31G(d)  Test

H6 C2

0 1
C
C 1 B1
H 1 B2 2 A2
H 1 B3 3 A3 2 D3
H 1 B4 4 A4 3 D4
H 2 B5 1 A5 5 D5
H 2 B6 6 A6 1 D6
H 2 B7 7 A7 6 D7

B1=1.530210
B2=1.090622
A2=109.355032
B3=1.090210
A3=109.560657
D3=119.839044
B4=1.090089
A4=109.592015
D4=-120.273338
B5=1.090622
A5=109.355032
D5=-59.984836
B6=1.090089
A6=109.588493
D6=119.885471
B7=1.090210
A7=109.592015
D7=-120.256376


