Fe31                                    
   1.00000000000000     
     7.2671929999999998    0.0000000000000000    0.0000000000000000
     0.0000000000000000    7.2671929999999998    0.0000000000000000
     0.0000000000000000    0.0000000000000000    7.2671929999999998
   Fe
    31
Direct
 -0.0000227597542091  0.0099603280003991  0.4849679588095860
  0.9997987607090677  0.4849810510288547  0.0098737782249131
  0.9999119971047696  0.4878772247461322  0.4878808445623997
  0.4998860174727272  0.9903032557144041  0.9903676726471349
  0.4998068992419437  0.9929939091398559  0.5137223893889634
  0.4999791731718252  0.5137909858894851  0.9929638182401807
  0.4998892196573366  0.5042572635491430  0.5042463339968093
  0.9998834207386235  0.1249518071499831  0.1249368563702342
  0.9999302325448470  0.2399231223399138  0.7648172242317164
  0.9998560804909082  0.7648446705710131  0.2399641426049406
  0.9998799971637768  0.7619995286862545  0.7619259075859391
  0.4998941279717600  0.2594861002348006  0.2594141668808326
  0.4998586315421584  0.2569067630559618  0.7361167214268720
  0.4999216402761736  0.7361037582709021  0.2568680929356678
  0.4998962572886492  0.7455814367250920  0.7455763465590962
  0.2752052478468180  0.9973118809151404  0.2525190748719209
  0.2405499056580315  0.0030304246854231  0.7555359372637519
  0.2405078331275662  0.4942995121767712  0.2466536391319726
  0.2322717894461313  0.5006119536277717  0.7493524378320303
  0.7245783926917316  0.9973668926629531  0.2526444352838157
  0.7592274418935009  0.0030742266032430  0.7554193804576871
  0.7592542479054012  0.4942405123212831  0.2467378307199902
  0.7675124991933177  0.5005744194307360  0.7492921614570788
  0.2751967283496144  0.2525385759884558  0.9972779284756405
  0.2405761345228989  0.2468542541262224  0.4942749334960966
  0.2404868741261367  0.7555477481007097  0.0030999280967252
  0.2322790902618562  0.7492323286135242  0.5005162281806265
  0.7245833173508547  0.2524225752005127  0.9972341307998394
  0.7592314713212895  0.2467811572859245  0.4943240689541536
  0.7592991245167624  0.7556620907441607  0.0030705745691534
  0.7675058762696807  0.7492957317746934  0.5005348415685433
 
  0.00000000E+00  0.00000000E+00  0.00000000E+00
  0.00000000E+00  0.00000000E+00  0.00000000E+00
  0.00000000E+00  0.00000000E+00  0.00000000E+00
  0.00000000E+00  0.00000000E+00  0.00000000E+00
  0.00000000E+00  0.00000000E+00  0.00000000E+00
  0.00000000E+00  0.00000000E+00  0.00000000E+00
  0.00000000E+00  0.00000000E+00  0.00000000E+00
  0.00000000E+00  0.00000000E+00  0.00000000E+00
  0.00000000E+00  0.00000000E+00  0.00000000E+00
  0.00000000E+00  0.00000000E+00  0.00000000E+00
  0.00000000E+00  0.00000000E+00  0.00000000E+00
  0.00000000E+00  0.00000000E+00  0.00000000E+00
  0.00000000E+00  0.00000000E+00  0.00000000E+00
  0.00000000E+00  0.00000000E+00  0.00000000E+00
  0.00000000E+00  0.00000000E+00  0.00000000E+00
  0.00000000E+00  0.00000000E+00  0.00000000E+00
  0.00000000E+00  0.00000000E+00  0.00000000E+00
  0.00000000E+00  0.00000000E+00  0.00000000E+00
  0.00000000E+00  0.00000000E+00  0.00000000E+00
  0.00000000E+00  0.00000000E+00  0.00000000E+00
  0.00000000E+00  0.00000000E+00  0.00000000E+00
  0.00000000E+00  0.00000000E+00  0.00000000E+00
  0.00000000E+00  0.00000000E+00  0.00000000E+00
  0.00000000E+00  0.00000000E+00  0.00000000E+00
  0.00000000E+00  0.00000000E+00  0.00000000E+00
  0.00000000E+00  0.00000000E+00  0.00000000E+00
  0.00000000E+00  0.00000000E+00  0.00000000E+00
  0.00000000E+00  0.00000000E+00  0.00000000E+00
  0.00000000E+00  0.00000000E+00  0.00000000E+00
  0.00000000E+00  0.00000000E+00  0.00000000E+00
  0.00000000E+00  0.00000000E+00  0.00000000E+00
