ALGO = Normal
EDIFF = 1e-07
EDIFFG = 1e-05
ENCUT = 520
IBRION = 2
ISIF = 3
ISMEAR = 0
ISPIN = 2
ISYM = 2
LCHARG = False
LORBIT = 11
LWAVE = False
NELM = 200
NELMIN = 4
NPAR = 4
NSW = 500
POTIM = 0.5
PREC = Accurate
SIGMA = 0.1
