Automatic generation
0
Cartesian
0.25 0.00 0.00
0.00 0.25 0.00
0.00 0.00 0.25
0.5 0.5 0.5