Cd2 S2 HSE optimized
   1.00000000000000     
     4.1704589747753724    0.0000000049514629    0.0000000000000000
    -2.0852299788115007    3.6117232476351271   -0.0000000000000000
     0.0000000000000000   -0.0000000000000000    6.7822968954189937
   Cd   S 
     2     2
Direct
  0.6666669999999968  0.3333330000000032  0.5001535716160643
  0.3333330000000032  0.6666669999999968  0.0001535716160644
  0.6666669999999968  0.3333330000000032  0.8768464283839381
  0.3333330000000032  0.6666669999999968  0.3768464283839381
