Li4 Fe4 P4 O16
1.0
10.410154 0.000130 -0.000889
0.000076 6.063274 0.000405
-0.000406 0.000317 4.754894
Fe Li O P
4 4 16 4
direct
0.218694 0.749999 0.475018 Fe
0.281333 0.250019 0.975150 Fe
0.718667 0.749981 0.024850 Fe
0.781306 0.250001 0.524982 Fe
0.000000 0.000000 0.000000 Li
0.000000 0.500000 0.000000 Li
0.500000 0.000000 0.500000 Li
0.500000 0.500000 0.500000 Li
0.043339 0.750012 0.707396 O
0.096672 0.249992 0.741528 O
0.165629 0.046219 0.285196 O
0.165617 0.453735 0.285259 O
0.334380 0.546244 0.785237 O
0.334384 0.953680 0.785213 O
0.403353 0.749992 0.241483 O
0.456612 0.250025 0.207341 O
0.543388 0.749975 0.792659 O
0.596647 0.250008 0.758517 O
0.665616 0.046320 0.214787 O
0.665620 0.453756 0.214763 O
0.834383 0.546265 0.714741 O
0.834371 0.953781 0.714804 O
0.903328 0.750008 0.258472 O
0.956661 0.249988 0.292604 O
0.094714 0.250071 0.418190 P
0.405225 0.750080 0.918200 P
0.594775 0.249920 0.081800 P
0.905286 0.749929 0.581810 P