\Gamma -> X -> S -> R -> A -> Z -> \Gamma -> Y -> X_1 -> A_1 -> T -> Y -> Z -> T
562
Reciprocal
0.0 0.0 0.0 1 
0.16666666666667 -0.0 0.0 1 
0.33333333333333 -0.0 0.0 1 
0.5 0.0 0.0 1 
-0.33333333333333 0.0 0.0 1 
-0.16666666666667 0.0 0.0 1 
-0.0 0.16666666666667 0.0 1 
0.16666666666667 0.16666666666667 0.0 1 
0.33333333333333 0.16666666666667 0.0 1 
0.5 0.16666666666667 0.0 1 
-0.33333333333333 0.16666666666667 0.0 1 
-0.16666666666667 0.16666666666667 0.0 1 
-0.0 0.33333333333333 0.0 1 
0.16666666666667 0.33333333333333 0.0 1 
0.33333333333333 0.33333333333333 0.0 1 
0.5 0.33333333333333 0.0 1 
-0.33333333333333 0.33333333333333 0.0 1 
-0.16666666666667 0.33333333333333 0.0 1 
0.0 0.5 0.0 1 
0.16666666666667 0.5 0.0 1 
0.33333333333333 0.5 0.0 1 
0.5 0.5 0.0 1 
-0.33333333333333 0.5 0.0 1 
-0.16666666666667 0.5 0.0 1 
0.0 -0.33333333333333 0.0 1 
0.16666666666667 -0.33333333333333 0.0 1 
0.33333333333333 -0.33333333333333 0.0 1 
0.5 -0.33333333333333 0.0 1 
-0.33333333333333 -0.33333333333333 0.0 1 
-0.16666666666667 -0.33333333333333 0.0 1 
0.0 -0.16666666666667 0.0 1 
0.16666666666667 -0.16666666666667 0.0 1 
0.33333333333333 -0.16666666666667 0.0 1 
0.5 -0.16666666666667 0.0 1 
-0.33333333333333 -0.16666666666667 0.0 1 
-0.16666666666667 -0.16666666666667 0.0 1 
0.0 0.0 0.33333333333333 1 
0.16666666666667 -0.0 0.33333333333333 1 
0.33333333333333 -0.0 0.33333333333333 1 
0.5 0.0 0.33333333333333 1 
-0.33333333333333 0.0 0.33333333333333 1 
-0.16666666666667 0.0 0.33333333333333 1 
-0.0 0.16666666666667 0.33333333333333 1 
0.16666666666667 0.16666666666667 0.33333333333333 1 
0.33333333333333 0.16666666666667 0.33333333333333 1 
0.5 0.16666666666667 0.33333333333333 1 
-0.33333333333333 0.16666666666667 0.33333333333333 1 
-0.16666666666667 0.16666666666667 0.33333333333333 1 
-0.0 0.33333333333333 0.33333333333333 1 
0.16666666666667 0.33333333333333 0.33333333333333 1 
0.33333333333333 0.33333333333333 0.33333333333333 1 
0.5 0.33333333333333 0.33333333333333 1 
-0.33333333333333 0.33333333333333 0.33333333333333 1 
-0.16666666666667 0.33333333333333 0.33333333333333 1 
0.0 0.5 0.33333333333333 1 
0.16666666666667 0.5 0.33333333333333 1 
0.33333333333333 0.5 0.33333333333333 1 
0.5 0.5 0.33333333333333 1 
-0.33333333333333 0.5 0.33333333333333 1 
-0.16666666666667 0.5 0.33333333333333 1 
0.0 -0.33333333333333 0.33333333333333 1 
0.16666666666667 -0.33333333333333 0.33333333333333 1 
0.33333333333333 -0.33333333333333 0.33333333333333 1 
0.5 -0.33333333333333 0.33333333333333 1 
-0.33333333333333 -0.33333333333333 0.33333333333333 1 
-0.16666666666667 -0.33333333333333 0.33333333333333 1 
0.0 -0.16666666666667 0.33333333333333 1 
0.16666666666667 -0.16666666666667 0.33333333333333 1 
0.33333333333333 -0.16666666666667 0.33333333333333 1 
0.5 -0.16666666666667 0.33333333333333 1 
-0.33333333333333 -0.16666666666667 0.33333333333333 1 
-0.16666666666667 -0.16666666666667 0.33333333333333 1 
0.0 0.0 -0.33333333333333 1 
0.16666666666667 -0.0 -0.33333333333333 1 
0.33333333333333 -0.0 -0.33333333333333 1 
0.5 0.0 -0.33333333333333 1 
-0.33333333333333 0.0 -0.33333333333333 1 
-0.16666666666667 0.0 -0.33333333333333 1 
-0.0 0.16666666666667 -0.33333333333333 1 
0.16666666666667 0.16666666666667 -0.33333333333333 1 
0.33333333333333 0.16666666666667 -0.33333333333333 1 
0.5 0.16666666666667 -0.33333333333333 1 
-0.33333333333333 0.16666666666667 -0.33333333333333 1 
-0.16666666666667 0.16666666666667 -0.33333333333333 1 
-0.0 0.33333333333333 -0.33333333333333 1 
0.16666666666667 0.33333333333333 -0.33333333333333 1 
0.33333333333333 0.33333333333333 -0.33333333333333 1 
0.5 0.33333333333333 -0.33333333333333 1 
-0.33333333333333 0.33333333333333 -0.33333333333333 1 
-0.16666666666667 0.33333333333333 -0.33333333333333 1 
0.0 0.5 -0.33333333333333 1 
0.16666666666667 0.5 -0.33333333333333 1 
0.33333333333333 0.5 -0.33333333333333 1 
0.5 0.5 -0.33333333333333 1 
-0.33333333333333 0.5 -0.33333333333333 1 
-0.16666666666667 0.5 -0.33333333333333 1 
0.0 -0.33333333333333 -0.33333333333333 1 
0.16666666666667 -0.33333333333333 -0.33333333333333 1 
0.33333333333333 -0.33333333333333 -0.33333333333333 1 
0.5 -0.33333333333333 -0.33333333333333 1 
-0.33333333333333 -0.33333333333333 -0.33333333333333 1 
-0.16666666666667 -0.33333333333333 -0.33333333333333 1 
0.0 -0.16666666666667 -0.33333333333333 1 
0.16666666666667 -0.16666666666667 -0.33333333333333 1 
0.33333333333333 -0.16666666666667 -0.33333333333333 1 
0.5 -0.16666666666667 -0.33333333333333 1 
-0.33333333333333 -0.16666666666667 -0.33333333333333 1 
-0.16666666666667 -0.16666666666667 -0.33333333333333 1 
0.0 0.0 0.0 0 \Gamma
0.003896502978830743 0.0038965029788307413 0.0 0 
0.007793005957661486 0.007793005957661483 0.0 0 
0.011689508936492229 0.011689508936492222 0.0 0 
0.015586011915322972 0.015586011915322965 0.0 0 
0.019482514894153716 0.019482514894153705 0.0 0 
0.023379017872984457 0.023379017872984444 0.0 0 
0.027275520851815203 0.02727552085181519 0.0 0 
0.031172023830645944 0.03117202383064593 0.0 0 
0.03506852680947668 0.03506852680947666 0.0 0 
0.03896502978830743 0.03896502978830741 0.0 0 
0.04286153276713817 0.04286153276713815 0.0 0 
0.046758035745968915 0.04675803574596889 0.0 0 
0.05065453872479966 0.05065453872479963 0.0 0 
0.054551041703630405 0.05455104170363038 0.0 0 
0.05844754468246114 0.05844754468246111 0.0 0 
0.06234404766129189 0.06234404766129186 0.0 0 
0.06624055064012262 0.06624055064012259 0.0 0 
0.07013705361895337 0.07013705361895332 0.0 0 
0.07403355659778411 0.07403355659778407 0.0 0 
0.07793005957661486 0.07793005957661482 0.0 0 
0.0818265625554456 0.08182656255544556 0.0 0 
0.08572306553427635 0.0857230655342763 0.0 0 
0.08961956851310708 0.08961956851310704 0.0 0 
0.09351607149193783 0.09351607149193777 0.0 0 
0.09741257447076858 0.09741257447076852 0.0 0 
0.10130907744959931 0.10130907744959926 0.0 0 
0.10520558042843006 0.10520558042843 0.0 0 
0.10910208340726081 0.10910208340726076 0.0 0 
0.11299858638609155 0.11299858638609149 0.0 0 
0.11689508936492228 0.11689508936492223 0.0 0 
0.12079159234375303 0.12079159234375297 0.0 0 
0.12468809532258378 0.12468809532258372 0.0 0 
0.1285845983014145 0.12858459830141444 0.0 0 
0.13248110128024523 0.13248110128024518 0.0 0 
0.136377604259076 0.13637760425907594 0.0 0 
0.14027410723790673 0.14027410723790665 0.0 0 
0.1441706102167375 0.14417061021673744 0.0 0 
0.14806711319556823 0.14806711319556815 0.0 0 
0.15196361617439896 0.15196361617439888 0.0 0 
0.15586011915322973 0.15586011915322964 0.0 0 
0.15975662213206046 0.15975662213206038 0.0 0 
0.1636531251108912 0.1636531251108911 0.0 0 
0.16754962808972196 0.16754962808972187 0.0 0 
0.1714461310685527 0.1714461310685526 0.0 0 
0.17534263404738343 0.17534263404738334 0.0 0 
0.17923913702621416 0.17923913702621408 0.0 0 
0.1831356400050449 0.18313564000504481 0.0 0 
0.18703214298387566 0.18703214298387555 0.0 0 
0.19092864596270637 0.19092864596270628 0.0 0 
0.19482514894153716 0.19482514894153705 0.0 0 
0.19872165192036786 0.19872165192036778 0.0 0 
0.20261815489919863 0.20261815489919852 0.0 0 
0.20651465787802936 0.20651465787802928 0.0 0 
0.21041116085686012 0.21041116085686 0.0 0 
0.21430766383569083 0.21430766383569075 0.0 0 
0.21820416681452162 0.2182041668145215 0.0 0 
0.22210066979335233 0.22210066979335222 0.0 0 
0.2259971727721831 0.22599717277218298 0.0 0 
0.22989367575101383 0.22989367575101372 0.0 0 
0.23379017872984456 0.23379017872984445 0.0 0 
0.2376866817086753 0.23768668170867518 0.0 0 
0.24158318468750606 0.24158318468750595 0.0 0 
0.2454796876663368 0.24547968766633668 0.0 0 
0.24937619064516756 0.24937619064516744 0.0 0 
0.2532726936239983 0.2532726936239982 0.0 0 
0.257169196602829 0.2571691966028289 0.0 0 
0.2610656995816598 0.26106569958165965 0.0 0 
0.26496220256049047 0.26496220256049036 0.0 0 
0.26885870553932123 0.2688587055393211 0.0 0 
0.272755208518152 0.2727552085181519 0.0 0 X
0.25976686525538284 0.28357638906490656 0.0 0 
0.24677852199261371 0.2943975696116612 0.0 0 
0.2337901787298446 0.3052187501584159 0.0 0 
0.22080183546707544 0.31603993070517056 0.0 0 
0.2078134922043063 0.32686111125192524 0.0 0 
0.19482514894153719 0.3376822917986798 0.0 0 
0.18183680567876803 0.3485034723454345 0.0 0 
0.1688484624159989 0.35932465289218923 0.0 0 
0.15586011915322978 0.3701458334389439 0.0 0 
0.14287177589046063 0.38096701398569854 0.0 0 
0.1298834326276915 0.3917881945324533 0.0 0 
0.11689508936492238 0.4026093750792079 0.0 0 
0.10390674610215322 0.4134305556259626 0.0 0 
0.0909184028393841 0.4242517361727173 0.0 0 
0.077930059576615 0.4350729167194719 0.0 0 
0.06494171631384582 0.4458940972662266 0.0 0 
0.051953373051076696 0.45671527781298127 0.0 0 
0.03896502978830754 0.4675364583597359 0.0 0 
0.025976686525538417 0.4783576389064906 0.0 0 
0.012988343262769264 0.48917881945324526 0.0 0 
1.3877787807814457e-16 0.49999999999999994 0.0 0 S
1.3877787807814457e-16 0.49999999999999994 0.02631578947368421 0 
1.3877787807814457e-16 0.49999999999999994 0.05263157894736842 0 
1.3877787807814457e-16 0.49999999999999994 0.07894736842105263 0 
1.3877787807814457e-16 0.49999999999999994 0.10526315789473684 0 
1.3877787807814457e-16 0.49999999999999994 0.13157894736842105 0 
1.3877787807814457e-16 0.49999999999999994 0.15789473684210525 0 
1.3877787807814457e-16 0.49999999999999994 0.18421052631578946 0 
1.3877787807814457e-16 0.49999999999999994 0.21052631578947367 0 
1.3877787807814457e-16 0.49999999999999994 0.23684210526315785 0 
1.3877787807814457e-16 0.49999999999999994 0.2631578947368421 0 
1.3877787807814457e-16 0.49999999999999994 0.2894736842105263 0 
1.3877787807814457e-16 0.49999999999999994 0.3157894736842105 0 
1.3877787807814457e-16 0.49999999999999994 0.34210526315789475 0 
1.3877787807814457e-16 0.49999999999999994 0.3684210526315789 0 
1.3877787807814457e-16 0.49999999999999994 0.39473684210526316 0 
1.3877787807814457e-16 0.49999999999999994 0.42105263157894735 0 
1.3877787807814457e-16 0.49999999999999994 0.4473684210526316 0 
1.3877787807814457e-16 0.49999999999999994 0.4736842105263157 0 
1.3877787807814457e-16 0.49999999999999994 0.5 0 R
0.012988343262769264 0.48917881945324526 0.5 0 
0.025976686525538417 0.4783576389064906 0.5 0 
0.03896502978830754 0.4675364583597359 0.5 0 
0.051953373051076696 0.45671527781298127 0.5 0 
0.06494171631384582 0.4458940972662266 0.5 0 
0.077930059576615 0.4350729167194719 0.5 0 
0.09091840283938407 0.4242517361727173 0.5 0 
0.10390674610215322 0.4134305556259626 0.5 0 
0.11689508936492235 0.4026093750792079 0.5 0 
0.1298834326276915 0.3917881945324533 0.5 0 
0.14287177589046063 0.38096701398569854 0.5 0 
0.15586011915322975 0.3701458334389439 0.5 0 
0.1688484624159989 0.35932465289218923 0.5 0 
0.18183680567876803 0.34850347234543455 0.5 0 
0.19482514894153719 0.3376822917986798 0.5 0 
0.2078134922043063 0.3268611112519252 0.5 0 
0.22080183546707544 0.31603993070517056 0.5 0 
0.2337901787298446 0.3052187501584159 0.5 0 
0.24677852199261371 0.29439756961166125 0.5 0 
0.25976686525538284 0.28357638906490656 0.5 0 
0.272755208518152 0.2727552085181519 0.5 0 A
0.26885870553932123 0.2688587055393211 0.5 0 
0.26496220256049047 0.26496220256049036 0.5 0 
0.26106569958165976 0.2610656995816596 0.5 0 
0.257169196602829 0.2571691966028289 0.5 0 
0.2532726936239983 0.2532726936239982 0.5 0 
0.24937619064516756 0.24937619064516744 0.5 0 
0.2454796876663368 0.24547968766633668 0.5 0 
0.24158318468750606 0.24158318468750595 0.5 0 
0.2376866817086753 0.23768668170867518 0.5 0 
0.23379017872984456 0.23379017872984445 0.5 0 
0.2298936757510138 0.2298936757510137 0.5 0 
0.2259971727721831 0.22599717277218298 0.5 0 
0.22210066979335233 0.22210066979335222 0.5 0 
0.2182041668145216 0.21820416681452148 0.5 0 
0.21430766383569086 0.21430766383569078 0.5 0 
0.21041116085686012 0.21041116085686 0.5 0 
0.20651465787802936 0.20651465787802928 0.5 0 
0.20261815489919863 0.20261815489919852 0.5 0 
0.19872165192036786 0.19872165192036778 0.5 0 
0.19482514894153713 0.19482514894153702 0.5 0 
0.1909286459627064 0.1909286459627063 0.5 0 
0.18703214298387566 0.18703214298387555 0.5 0 
0.18313564000504493 0.18313564000504484 0.5 0 
0.1792391370262142 0.1792391370262141 0.5 0 
0.17534263404738343 0.17534263404738334 0.5 0 
0.1714461310685527 0.1714461310685526 0.5 0 
0.16754962808972193 0.16754962808972185 0.5 0 
0.1636531251108912 0.1636531251108911 0.5 0 
0.15975662213206043 0.15975662213206035 0.5 0 
0.15586011915322973 0.15586011915322964 0.5 0 
0.15196361617439896 0.15196361617439888 0.5 0 
0.14806711319556823 0.14806711319556815 0.5 0 
0.1441706102167375 0.14417061021673744 0.5 0 
0.14027410723790673 0.14027410723790668 0.5 0 
0.136377604259076 0.13637760425907594 0.5 0 
0.13248110128024526 0.1324811012802452 0.5 0 
0.1285845983014145 0.12858459830141444 0.5 0 
0.12468809532258378 0.12468809532258372 0.5 0 
0.12079159234375303 0.12079159234375297 0.5 0 
0.11689508936492228 0.11689508936492223 0.5 0 
0.11299858638609153 0.11299858638609148 0.5 0 
0.10910208340726081 0.10910208340726076 0.5 0 
0.10520558042843003 0.10520558042842998 0.5 0 
0.10130907744959931 0.10130907744959926 0.5 0 
0.09741257447076856 0.09741257447076851 0.5 0 
0.09351607149193784 0.09351607149193779 0.5 0 
0.0896195685131071 0.08961956851310705 0.5 0 
0.08572306553427635 0.0857230655342763 0.5 0 
0.08182656255544561 0.08182656255544558 0.5 0 
0.07793005957661485 0.07793005957661481 0.5 0 
0.07403355659778411 0.07403355659778409 0.5 0 
0.07013705361895337 0.07013705361895334 0.5 0 
0.06624055064012262 0.06624055064012259 0.5 0 
0.062344047661291875 0.06234404766129185 0.5 0 
0.058447544682461154 0.058447544682461126 0.5 0 
0.05455104170363038 0.05455104170363035 0.5 0 
0.05065453872479966 0.05065453872479963 0.5 0 
0.04675803574596891 0.04675803574596889 0.5 0 
0.04286153276713816 0.04286153276713814 0.5 0 
0.03896502978830743 0.03896502978830742 0.5 0 
0.03506852680947668 0.03506852680947667 0.5 0 
0.031172023830645938 0.031172023830645924 0.5 0 
0.02727552085181519 0.027275520851815175 0.5 0 
0.02337901787298444 0.02337901787298443 0.5 0 
0.01948251489415369 0.01948251489415368 0.5 0 
0.015586011915322995 0.015586011915322988 0.5 0 
0.011689508936492194 0.011689508936492189 0.5 0 
0.007793005957661497 0.007793005957661494 0.5 0 
0.0038965029788307487 0.003896502978830747 0.5 0 
0.0 0.0 0.5 0 Z
0.0 0.0 0.47368421052631576 0 
0.0 0.0 0.4473684210526316 0 
0.0 0.0 0.42105263157894735 0 
0.0 0.0 0.39473684210526316 0 
0.0 0.0 0.368421052631579 0 
0.0 0.0 0.34210526315789475 0 
0.0 0.0 0.3157894736842105 0 
0.0 0.0 0.2894736842105263 0 
0.0 0.0 0.26315789473684215 0 
0.0 0.0 0.23684210526315788 0 
0.0 0.0 0.21052631578947367 0 
0.0 0.0 0.1842105263157895 0 
0.0 0.0 0.15789473684210525 0 
0.0 0.0 0.13157894736842107 0 
0.0 0.0 0.10526315789473684 0 
0.0 0.0 0.07894736842105264 0 
0.0 0.0 0.05263157894736837 0 
0.0 0.0 0.026315789473684275 0 
0.0 0.0 0.0 0 \Gamma
-0.012820512820512818 0.012820512820512818 0.0 0 
-0.025641025641025637 0.025641025641025637 0.0 0 
-0.038461538461538464 0.03846153846153846 0.0 0 
-0.05128205128205127 0.05128205128205127 0.0 0 
-0.06410256410256408 0.0641025641025641 0.0 0 
-0.07692307692307693 0.07692307692307691 0.0 0 
-0.08974358974358973 0.08974358974358973 0.0 0 
-0.10256410256410255 0.10256410256410255 0.0 0 
-0.11538461538461536 0.11538461538461538 0.0 0 
-0.12820512820512817 0.1282051282051282 0.0 0 
-0.14102564102564102 0.141025641025641 0.0 0 
-0.15384615384615385 0.15384615384615383 0.0 0 
-0.16666666666666663 0.16666666666666663 0.0 0 
-0.17948717948717946 0.17948717948717946 0.0 0 
-0.1923076923076923 0.1923076923076923 0.0 0 
-0.2051282051282051 0.2051282051282051 0.0 0 
-0.2179487179487179 0.2179487179487179 0.0 0 
-0.23076923076923073 0.23076923076923075 0.0 0 
-0.24358974358974353 0.24358974358974356 0.0 0 
-0.25641025641025633 0.2564102564102564 0.0 0 
-0.26923076923076916 0.26923076923076916 0.0 0 
-0.28205128205128205 0.282051282051282 0.0 0 
-0.2948717948717948 0.2948717948717948 0.0 0 
-0.3076923076923077 0.30769230769230765 0.0 0 
-0.3205128205128205 0.3205128205128205 0.0 0 
-0.33333333333333326 0.33333333333333326 0.0 0 
-0.3461538461538461 0.3461538461538461 0.0 0 
-0.3589743589743589 0.3589743589743589 0.0 0 
-0.37179487179487175 0.37179487179487175 0.0 0 
-0.3846153846153846 0.3846153846153846 0.0 0 
-0.39743589743589736 0.39743589743589736 0.0 0 
-0.4102564102564102 0.4102564102564102 0.0 0 
-0.42307692307692296 0.42307692307692296 0.0 0 
-0.4358974358974358 0.4358974358974358 0.0 0 
-0.4487179487179487 0.4487179487179487 0.0 0 
-0.46153846153846145 0.4615384615384615 0.0 0 
-0.4743589743589743 0.4743589743589743 0.0 0 
-0.48717948717948706 0.4871794871794871 0.0 0 
-0.4999999999999999 0.49999999999999994 0.0 0 Y
-0.4960819863537611 0.5039180136462387 0.0 0 
-0.4921639727075224 0.5078360272924775 0.0 0 
-0.4882459590612836 0.5117540409387162 0.0 0 
-0.4843279454150448 0.515672054584955 0.0 0 
-0.4804099317688061 0.5195900682311938 0.0 0 
-0.4764919181225673 0.5235080818774325 0.0 0 
-0.4725739044763285 0.5274260955236713 0.0 0 
-0.4686558908300898 0.53134410916991 0.0 0 
-0.464737877183851 0.5352621228161488 0.0 0 
-0.4608198635376123 0.5391801364623876 0.0 0 
-0.4569018498913735 0.5430981501086263 0.0 0 
-0.4529838362451347 0.5470161637548651 0.0 0 
-0.449065822598896 0.5509341774011038 0.0 0 
-0.4451478089526572 0.5548521910473426 0.0 0 
-0.4412297953064184 0.5587702046935814 0.0 0 
-0.4373117816601797 0.5626882183398201 0.0 0 
-0.4333937680139409 0.5666062319860589 0.0 0 
-0.4294757543677022 0.5705242456322976 0.0 0 
-0.4255577407214634 0.5744422592785364 0.0 0 
-0.4216397270752246 0.5783602729247752 0.0 0 
-0.4177217134289859 0.5822782865710139 0.0 0 
-0.4138036997827471 0.5861963002172527 0.0 0 
-0.40988568613650833 0.5901143138634914 0.0 0 
-0.4059676724902696 0.5940323275097302 0.0 0 
-0.4020496588440308 0.5979503411559689 0.0 0 
-0.3981316451977921 0.6018683548022077 0.0 0 
-0.3942136315515533 0.6057863684484465 0.0 0 
-0.39029561790531453 0.6097043820946852 0.0 0 
-0.3863776042590758 0.613622395740924 0.0 0 
-0.382459590612837 0.6175404093871628 0.0 0 
-0.3785415769665983 0.6214584230334015 0.0 0 
-0.3746235633203595 0.6253764366796403 0.0 0 
-0.3707055496741207 0.629294450325879 0.0 0 
-0.366787536027882 0.6332124639721177 0.0 0 
-0.3628695223816432 0.6371304776183566 0.0 0 
-0.3589515087354045 0.6410484912645953 0.0 0 
-0.3550334950891657 0.6449665049108341 0.0 0 
-0.3511154814429269 0.6488845185570729 0.0 0 
-0.34719746779668814 0.6528025322033116 0.0 0 
-0.34327945415044936 0.6567205458495504 0.0 0 
-0.33936144050421063 0.6606385594957891 0.0 0 
-0.3354434268579719 0.6645565731420279 0.0 0 
-0.3315254132117331 0.6684745867882667 0.0 0 
-0.32760739956549434 0.6723926004345053 0.0 0 
-0.32368938591925556 0.6763106140807442 0.0 0 
-0.31977137227301683 0.6802286277269829 0.0 0 
-0.3158533586267781 0.6841466413732217 0.0 0 
-0.3119353449805393 0.6880646550194605 0.0 0 
-0.30801733133430054 0.6919826686656992 0.0 0 
-0.3040993176880618 0.6959006823119379 0.0 0 
-0.300181304041823 0.6998186959581767 0.0 0 
-0.29626329039558424 0.7037367096044155 0.0 0 
-0.29234527674934546 0.7076547232506543 0.0 0 
-0.28842726310310673 0.7115727368968929 0.0 0 
-0.28450924945686795 0.7154907505431318 0.0 0 
-0.28059123581062917 0.7194087641893705 0.0 0 
-0.27667322216439044 0.7233267778356093 0.0 0 
-0.2727552085181517 0.7272447914818481 0.0 0 X_1
-0.2727552085181517 0.7272447914818481 0.02631578947368421 0 
-0.2727552085181517 0.7272447914818481 0.05263157894736842 0 
-0.2727552085181517 0.7272447914818481 0.07894736842105263 0 
-0.2727552085181517 0.7272447914818481 0.10526315789473684 0 
-0.2727552085181517 0.7272447914818481 0.13157894736842105 0 
-0.2727552085181517 0.7272447914818481 0.15789473684210525 0 
-0.2727552085181517 0.7272447914818481 0.18421052631578946 0 
-0.2727552085181517 0.7272447914818481 0.21052631578947367 0 
-0.2727552085181517 0.7272447914818481 0.23684210526315785 0 
-0.2727552085181517 0.7272447914818481 0.2631578947368421 0 
-0.2727552085181517 0.7272447914818481 0.2894736842105263 0 
-0.2727552085181517 0.7272447914818481 0.3157894736842105 0 
-0.2727552085181517 0.7272447914818481 0.34210526315789475 0 
-0.2727552085181517 0.7272447914818481 0.3684210526315789 0 
-0.2727552085181517 0.7272447914818481 0.39473684210526316 0 
-0.2727552085181517 0.7272447914818481 0.42105263157894735 0 
-0.2727552085181517 0.7272447914818481 0.4473684210526316 0 
-0.2727552085181517 0.7272447914818481 0.4736842105263157 0 
-0.2727552085181517 0.7272447914818481 0.5 0 A_1
-0.27667322216439044 0.7233267778356093 0.5 0 
-0.28059123581062917 0.7194087641893705 0.5 0 
-0.28450924945686795 0.7154907505431318 0.5 0 
-0.28842726310310673 0.7115727368968929 0.5 0 
-0.2923452767493455 0.7076547232506543 0.5 0 
-0.29626329039558424 0.7037367096044155 0.5 0 
-0.300181304041823 0.6998186959581767 0.5 0 
-0.30409931768806175 0.695900682311938 0.5 0 
-0.30801733133430054 0.6919826686656991 0.5 0 
-0.3119353449805393 0.6880646550194605 0.5 0 
-0.3158533586267781 0.6841466413732217 0.5 0 
-0.31977137227301683 0.6802286277269829 0.5 0 
-0.32368938591925556 0.6763106140807442 0.5 0 
-0.32760739956549434 0.6723926004345054 0.5 0 
-0.3315254132117331 0.6684745867882667 0.5 0 
-0.33544342685797185 0.6645565731420279 0.5 0 
-0.3393614405042106 0.6606385594957891 0.5 0 
-0.34327945415044936 0.6567205458495504 0.5 0 
-0.34719746779668814 0.6528025322033116 0.5 0 
-0.3511154814429269 0.6488845185570729 0.5 0 
-0.3550334950891657 0.6449665049108341 0.5 0 
-0.3589515087354045 0.6410484912645953 0.5 0 
-0.3628695223816432 0.6371304776183566 0.5 0 
-0.36678753602788194 0.6332124639721178 0.5 0 
-0.3707055496741207 0.629294450325879 0.5 0 
-0.3746235633203595 0.6253764366796403 0.5 0 
-0.37854157696659824 0.6214584230334015 0.5 0 
-0.382459590612837 0.6175404093871627 0.5 0 
-0.3863776042590758 0.613622395740924 0.5 0 
-0.39029561790531453 0.6097043820946852 0.5 0 
-0.3942136315515533 0.6057863684484465 0.5 0 
-0.39813164519779204 0.6018683548022077 0.5 0 
-0.4020496588440308 0.5979503411559689 0.5 0 
-0.40596767249026955 0.5940323275097302 0.5 0 
-0.40988568613650833 0.5901143138634914 0.5 0 
-0.4138036997827471 0.5861963002172527 0.5 0 
-0.4177217134289859 0.5822782865710139 0.5 0 
-0.4216397270752246 0.5783602729247752 0.5 0 
-0.4255577407214634 0.5744422592785364 0.5 0 
-0.4294757543677022 0.5705242456322976 0.5 0 
-0.4333937680139409 0.5666062319860589 0.5 0 
-0.4373117816601797 0.5626882183398201 0.5 0 
-0.4412297953064185 0.5587702046935813 0.5 0 
-0.4451478089526572 0.5548521910473426 0.5 0 
-0.449065822598896 0.5509341774011038 0.5 0 
-0.4529838362451347 0.5470161637548651 0.5 0 
-0.4569018498913735 0.5430981501086263 0.5 0 
-0.4608198635376123 0.5391801364623876 0.5 0 
-0.46473787718385107 0.5352621228161488 0.5 0 
-0.4686558908300898 0.53134410916991 0.5 0 
-0.4725739044763286 0.5274260955236713 0.5 0 
-0.4764919181225673 0.5235080818774325 0.5 0 
-0.4804099317688061 0.5195900682311937 0.5 0 
-0.4843279454150448 0.515672054584955 0.5 0 
-0.4882459590612836 0.5117540409387162 0.5 0 
-0.4921639727075224 0.5078360272924775 0.5 0 
-0.4960819863537611 0.5039180136462387 0.5 0 
-0.4999999999999999 0.49999999999999994 0.5 0 T
-0.4999999999999999 0.49999999999999994 0.47368421052631576 0 
-0.4999999999999999 0.49999999999999994 0.4473684210526316 0 
-0.4999999999999999 0.49999999999999994 0.42105263157894735 0 
-0.4999999999999999 0.49999999999999994 0.39473684210526316 0 
-0.4999999999999999 0.49999999999999994 0.368421052631579 0 
-0.4999999999999999 0.49999999999999994 0.34210526315789475 0 
-0.4999999999999999 0.49999999999999994 0.3157894736842105 0 
-0.4999999999999999 0.49999999999999994 0.2894736842105263 0 
-0.4999999999999999 0.49999999999999994 0.26315789473684215 0 
-0.4999999999999999 0.49999999999999994 0.23684210526315788 0 
-0.4999999999999999 0.49999999999999994 0.21052631578947367 0 
-0.4999999999999999 0.49999999999999994 0.1842105263157895 0 
-0.4999999999999999 0.49999999999999994 0.15789473684210525 0 
-0.4999999999999999 0.49999999999999994 0.13157894736842107 0 
-0.4999999999999999 0.49999999999999994 0.10526315789473684 0 
-0.4999999999999999 0.49999999999999994 0.07894736842105264 0 
-0.4999999999999999 0.49999999999999994 0.05263157894736837 0 
-0.4999999999999999 0.49999999999999994 0.026315789473684275 0 
-0.4999999999999999 0.49999999999999994 0.0 0 Y
0.0 0.0 0.5 0 Z
-0.012820512820512818 0.012820512820512818 0.5 0 
-0.025641025641025637 0.025641025641025637 0.5 0 
-0.038461538461538464 0.03846153846153846 0.5 0 
-0.05128205128205127 0.05128205128205127 0.5 0 
-0.06410256410256408 0.0641025641025641 0.5 0 
-0.07692307692307693 0.07692307692307691 0.5 0 
-0.08974358974358973 0.08974358974358973 0.5 0 
-0.10256410256410255 0.10256410256410255 0.5 0 
-0.11538461538461536 0.11538461538461538 0.5 0 
-0.12820512820512817 0.1282051282051282 0.5 0 
-0.14102564102564102 0.141025641025641 0.5 0 
-0.15384615384615385 0.15384615384615383 0.5 0 
-0.16666666666666663 0.16666666666666663 0.5 0 
-0.17948717948717946 0.17948717948717946 0.5 0 
-0.1923076923076923 0.1923076923076923 0.5 0 
-0.2051282051282051 0.2051282051282051 0.5 0 
-0.2179487179487179 0.2179487179487179 0.5 0 
-0.23076923076923073 0.23076923076923075 0.5 0 
-0.24358974358974353 0.24358974358974356 0.5 0 
-0.25641025641025633 0.2564102564102564 0.5 0 
-0.26923076923076916 0.26923076923076916 0.5 0 
-0.28205128205128205 0.282051282051282 0.5 0 
-0.2948717948717948 0.2948717948717948 0.5 0 
-0.3076923076923077 0.30769230769230765 0.5 0 
-0.3205128205128205 0.3205128205128205 0.5 0 
-0.33333333333333326 0.33333333333333326 0.5 0 
-0.3461538461538461 0.3461538461538461 0.5 0 
-0.3589743589743589 0.3589743589743589 0.5 0 
-0.37179487179487175 0.37179487179487175 0.5 0 
-0.3846153846153846 0.3846153846153846 0.5 0 
-0.39743589743589736 0.39743589743589736 0.5 0 
-0.4102564102564102 0.4102564102564102 0.5 0 
-0.42307692307692296 0.42307692307692296 0.5 0 
-0.4358974358974358 0.4358974358974358 0.5 0 
-0.4487179487179487 0.4487179487179487 0.5 0 
-0.46153846153846145 0.4615384615384615 0.5 0 
-0.4743589743589743 0.4743589743589743 0.5 0 
-0.48717948717948706 0.4871794871794871 0.5 0 
-0.4999999999999999 0.49999999999999994 0.5 0 T
