Auto-generated kpoints file: VaspIO.writeKPOINTS(XX,XX,500)
0
Monk
 2 4 6
 
