Automatic mesh
0              
A         
  10           