Mn1 O1
1.0
2.769761 0.000000 1.599122
0.923254 2.611356 1.599122
0.000000 0.000000 3.198244
O Mn
1 1
direct
0.499998 0.500001 0.500002 O
0.000000 0.000000 0.000000 Mn
