O8                                      
   1.00000000000000     
    -1.8628824395635279   -0.0000000000000000    3.7388868241191480
     4.4424747278302252   -3.5303939259642854    0.0322737010872864
     4.4424747278302252    3.5303939259642854    0.0322737010872864
   O 
     8
Direct
  0.8437979171436792  0.1804154158284391  0.1804154158284391
  0.8367716311953283  0.6888816354361195  0.2455207963083472
  0.1708038293852493  0.2462677704425122  0.2462677704425122
  0.1632283688046719  0.7544792036916452  0.3111193645638788
  0.8367716311953283  0.2455207963083472  0.6888816354361196
  0.8291961706147499  0.7537322295574876  0.7537322295574879
  0.1632283688046720  0.3111193645638788  0.7544792036916453
  0.1562020828563218  0.8195845841715609  0.8195845841715610
 
  0.00000000E+00  0.00000000E+00  0.00000000E+00
  0.00000000E+00  0.00000000E+00  0.00000000E+00
  0.00000000E+00  0.00000000E+00  0.00000000E+00
  0.00000000E+00  0.00000000E+00  0.00000000E+00
  0.00000000E+00  0.00000000E+00  0.00000000E+00
  0.00000000E+00  0.00000000E+00  0.00000000E+00
  0.00000000E+00  0.00000000E+00  0.00000000E+00
  0.00000000E+00  0.00000000E+00  0.00000000E+00
