H2
1.0
   1.0000000000000000    0.0000000000000000    0.0000000000000000
   0.0000000000000000    1.0000000000000000    0.0000000000000000
   0.0000000000000000    0.0000000000000000    1.0000000000000000
H
2
direct
   0.0000000000000000    0.0000000000000000    0.0000000000000000 H
   0.5000000000000000    0.5000000000000000    0.5000000000000000 H

