 B  N 
 1.0000000000000000
     0.0000000000000000    1.7849999999999999    1.7849999999999999
     1.7849999999999999    0.0000000000000000    1.7849999999999999
     1.7849999999999999    1.7849999999999999    0.0000000000000000
 B   N  
   1   1
Cartesian
  0.4459613248654051  0.4459613248654051  0.4459613248654051
  0.4465386751345948  0.4465386751345948  0.4465386751345948
