Fully automatic kpoint scheme
0
Automatic
25
