Fe31
1.0
7.267193 0.000000 0.000000
0.000000 7.267193 0.000000
0.000000 0.000000 7.267193
Fe
31
direct
0.000567 0.999748 0.499894 Fe
0.999145 0.499894 0.000042 Fe
0.999629 0.500178 0.499641 Fe
0.499560 0.999891 -0.000195 Fe
0.499047 -0.000031 0.500408 Fe
0.500740 0.499583 -0.000032 Fe
0.500492 0.499590 0.499928 Fe
0.999686 0.244556 0.243967 Fe
0.000697 0.244012 0.755621 Fe
0.999543 0.755479 0.243668 Fe
0.999028 0.755912 0.756021 Fe
0.499994 0.247825 0.248027 Fe
0.499578 0.248616 0.751823 Fe
0.499611 0.751581 0.248337 Fe
0.500639 0.750948 0.751839 Fe
0.244167 0.999543 0.243989 Fe
0.244157 0.999343 0.755428 Fe
0.247705 0.499924 0.247258 Fe
0.247871 0.499982 0.752098 Fe
0.755101 0.000307 0.244807 Fe
0.755532 0.000363 0.755307 Fe
0.752130 0.499826 0.248125 Fe
0.752250 0.499520 0.751877 Fe
0.244202 0.244626 -0.000079 Fe
0.247476 0.248965 0.499785 Fe
0.244230 0.754752 -0.000350 Fe
0.247666 0.750515 0.499978 Fe
0.755770 0.243759 0.999943 Fe
0.752472 0.247881 0.500231 Fe
0.755168 0.756130 0.000175 Fe
0.752043 0.751971 0.499900 Fe
