Ca2 Al8 Si4 H4 O24                      
   1.00000000000000     
    -2.5601942466280545   -4.4606387808854420    0.2748736374241443
    -2.5601942466280545    4.4606387808854420    0.2748736374241443
    -0.1762962534421634    0.0000000000000000  -19.3962668329358934
   Ca   Al   Si   H    O 
     2     8     4     4    24
Direct
  0.9056579392332367  0.0945466542415758  0.7491553841976071
  0.0945466542415758  0.9056579392332367  0.2491553841976142
  0.5332251422181926  0.3931000066678720  0.6406732371525692
  0.3931000066678720  0.5332251422181926  0.1406732371525692
  0.8316892253511483  0.6665945686646424  0.4990639902131022
  0.6665945686646424  0.8316892253511483  0.9990639902131022
  0.1654773305903987  0.3342180662931824  0.4991796569837277
  0.3342180662931824  0.1654773305903987  0.9991796569837277
  0.8067743138034800  0.2905512208142937  0.3575352586929412
  0.2905512208142937  0.8067743138034800  0.8575352586929412
  0.1941355578136168  0.7125864646894655  0.6440079466401656
  0.7125864646894655  0.1941355578136168  0.1440079466401656
  0.4636419508401772  0.6077555062483029  0.3541971718266126
  0.6077555062483029  0.4636419508401772  0.8541971718266126
  0.7063018949227740  0.0234858279882317  0.5598398139517684
  0.0234858279882317  0.7063018949227740  0.0598398139517684
  0.2923546735643470  0.9795603783254734  0.4386722054225984
  0.9795603783254734  0.2923546735643470  0.9386722054225984
  0.8945666024852059  0.6819707562675177  0.6786920928434697
  0.6819707562675177  0.8945666024852059  0.1786920928434697
  0.5147482473902159  0.4101786236481217  0.5515088428064630
  0.4101786236481217  0.5147482473902159  0.0515088428064630
  0.1324823188262840  0.3347627911676909  0.3192228998820354
  0.3347627911676909  0.1324823188262840  0.8192228998820354
  0.1369385894998345  0.6475129736261636  0.5595865135195623
  0.6475129736261636  0.1369385894998345  0.0595865135195623
  0.1100025794799393  0.9833787439561661  0.4474642695417685
  0.9833787439561661  0.1100025794799393  0.9474642695417685
  0.2623306620383090  0.4621421641554804  0.6777708056955660
  0.4621421641554804  0.2623306620383090  0.1777708056955660
  0.4840165961380691  0.6027108177896423  0.4385978229057272
  0.6027108177896423  0.4840165961380691  0.9385978229057201
  0.7230882058821351  0.5546327869474794  0.3207302855468157
  0.5546327869474794  0.7230882058821351  0.8207302855468157
  0.8731868875413866  0.3712393279441883  0.4467465324118436
  0.3712393279441883  0.8731868875413866  0.9467465324118436
  0.4874682940761375  0.0485445110033424  0.6680085817393930
  0.0485445110033424  0.4874682940761375  0.1680085817393930
  0.8890198214245686  0.0208950701048138  0.5507787403441426
  0.0208950701048138  0.8890198214245686  0.0507787403441426
  0.4977946242432907  0.9261312820936070  0.3301679476821135
  0.9261312820936070  0.4977946242432907  0.8301679476821135
 
  0.00000000E+00  0.00000000E+00  0.00000000E+00
  0.00000000E+00  0.00000000E+00  0.00000000E+00
  0.00000000E+00  0.00000000E+00  0.00000000E+00
  0.00000000E+00  0.00000000E+00  0.00000000E+00
  0.00000000E+00  0.00000000E+00  0.00000000E+00
  0.00000000E+00  0.00000000E+00  0.00000000E+00
  0.00000000E+00  0.00000000E+00  0.00000000E+00
  0.00000000E+00  0.00000000E+00  0.00000000E+00
  0.00000000E+00  0.00000000E+00  0.00000000E+00
  0.00000000E+00  0.00000000E+00  0.00000000E+00
  0.00000000E+00  0.00000000E+00  0.00000000E+00
  0.00000000E+00  0.00000000E+00  0.00000000E+00
  0.00000000E+00  0.00000000E+00  0.00000000E+00
  0.00000000E+00  0.00000000E+00  0.00000000E+00
  0.00000000E+00  0.00000000E+00  0.00000000E+00
  0.00000000E+00  0.00000000E+00  0.00000000E+00
  0.00000000E+00  0.00000000E+00  0.00000000E+00
  0.00000000E+00  0.00000000E+00  0.00000000E+00
  0.00000000E+00  0.00000000E+00  0.00000000E+00
  0.00000000E+00  0.00000000E+00  0.00000000E+00
  0.00000000E+00  0.00000000E+00  0.00000000E+00
  0.00000000E+00  0.00000000E+00  0.00000000E+00
  0.00000000E+00  0.00000000E+00  0.00000000E+00
  0.00000000E+00  0.00000000E+00  0.00000000E+00
  0.00000000E+00  0.00000000E+00  0.00000000E+00
  0.00000000E+00  0.00000000E+00  0.00000000E+00
  0.00000000E+00  0.00000000E+00  0.00000000E+00
  0.00000000E+00  0.00000000E+00  0.00000000E+00
  0.00000000E+00  0.00000000E+00  0.00000000E+00
  0.00000000E+00  0.00000000E+00  0.00000000E+00
  0.00000000E+00  0.00000000E+00  0.00000000E+00
  0.00000000E+00  0.00000000E+00  0.00000000E+00
  0.00000000E+00  0.00000000E+00  0.00000000E+00
  0.00000000E+00  0.00000000E+00  0.00000000E+00
  0.00000000E+00  0.00000000E+00  0.00000000E+00
  0.00000000E+00  0.00000000E+00  0.00000000E+00
  0.00000000E+00  0.00000000E+00  0.00000000E+00
  0.00000000E+00  0.00000000E+00  0.00000000E+00
  0.00000000E+00  0.00000000E+00  0.00000000E+00
  0.00000000E+00  0.00000000E+00  0.00000000E+00
  0.00000000E+00  0.00000000E+00  0.00000000E+00
  0.00000000E+00  0.00000000E+00  0.00000000E+00
