# Solvated 5-mer peptide

units		real
atom_style	full

pair_style	$${pair_style}
bond_style      harmonic
angle_style     charmm
dihedral_style  charmm
improper_style  harmonic
kspace_style	$${kspace_style}

read_data	$${data_file}

neighbor	2.0 bin
neigh_modify	delay 5

timestep	2.0

thermo_style	multi
thermo		50

fix		$${fix_1}
fix		$${fix_2}

group		peptide type <= 12

run		300
