Cu24
1.0
4.419702 0.000000 -0.280619
-1.497013 5.510697 -0.280619
0.000000 0.000000 23.293904
Cu
24
direct
0.908646 0.273140 0.363925 Cu
0.157507 0.104850 0.282244 Cu
0.032103 0.688992 0.320866 Cu
0.594365 0.895277 0.300873 Cu
0.466459 0.484664 0.341070 Cu
0.719501 0.309257 0.264691 Cu
0.530675 0.020673 0.489622 Cu
0.779912 0.852770 0.405919 Cu
0.656101 0.436565 0.447280 Cu
0.219366 0.644453 0.426874 Cu
0.092274 0.228956 0.468194 Cu
0.343324 0.061194 0.385196 Cu
0.156676 0.772139 0.614804 Cu
0.407726 0.604378 0.531806 Cu
0.280634 0.188880 0.573126 Cu
0.843899 0.396768 0.552720 Cu
0.720088 0.980564 0.594081 Cu
0.969325 0.812660 0.510378 Cu
0.780499 0.524076 0.735309 Cu
0.033541 0.348670 0.658930 Cu
0.905635 0.938056 0.699127 Cu
0.467897 0.144341 0.679134 Cu
0.342493 0.728484 0.717756 Cu
0.591354 0.560193 0.636075 Cu
