Re1 O3
1.0
3.792407 0.000000 0.000000
0.000000 3.792407 0.000000
0.000000 0.000000 3.792407
Re O
1 3
direct
0.000000 0.000000 0.000000 Re
0.000000 0.500000 0.000000 O
0.500000 0.000000 0.000000 O
0.000000 0.000000 0.500000 O

0.000000 0.000000 0.000000
0.000000 0.000000 0.000000
0.000000 0.000000 0.000000
0.000000 0.000000 0.000000
