Ag4 O2
1.0
4.840837 0.000000 0.000000
0.000000 4.840837 0.000000
0.000000 0.000000 4.840837
Ag O
4 2
direct
0.500000 0.500000 0.000000 Ag
0.000000 0.500000 0.500000 Ag
0.500000 0.000000 0.500000 Ag
0.000000 0.000000 0.000000 Ag
0.250000 0.250000 0.250000 O
0.750000 0.750000 0.750000 O

0.000000 0.000000 0.000000
0.000000 0.000000 0.000000
0.000000 0.000000 0.000000
0.000000 0.000000 0.000000
0.000000 0.000000 0.000000
0.000000 0.000000 0.000000
