$cell vectors
1.0
 21.7599897610110631    0.0000000000000000    0.0000000000000000
  0.0000000000000000   21.7599897610110631    0.0000000000000000
  0.0000000000000000    0.0000000000000000   21.7599897610110631
 256 576
Direct
  0.0000000000000000    0.0000000000000000    0.2499999999999999 # U1
  0.5000000000000000    0.0000000000000000    0.2499999999999999 # U2
  0.0000000000000000    0.1249999999999999    0.1249999999999999 # U3
  0.5000000000000000    0.1249999999999999    0.1249999999999999 # U4
  0.0000000000000000    0.6250000000000000    0.1249999999999999 # U5
  0.0000000000000000    0.1249999999999999    0.6250000000000000 # U6
  0.9879999999999997    0.9880000000000000    0.9879999999999997 # U7
  0.5000000000000000    0.5000000000000000    0.7499999999999999 # U8
  0.0000000000000000    0.5000000000000000    0.7499999999999999 # U9
  0.5000000000000000    0.6250000000000000    0.6250000000000000 # U10
  0.0000000000000000    0.6250000000000000    0.6250000000000000 # U11
  0.5000000000000000    0.1249999999999999    0.6250000000000000 # U12
  0.5000000000000000    0.6250000000000000    0.1249999999999999 # U13
  0.4880000000000000    0.4880000000000000    0.4880000000000000 # U14
  0.2500000000000001    0.7499999999999999    0.5000000000000000 # U15
  0.2500000000000001    0.2500000000000001    0.5000000000000000 # U16
  0.1249999999999999    0.7499999999999999    0.3749999999999998 # U17
  0.1249999999999999    0.2500000000000001    0.3749999999999998 # U18
  0.6250000000000000    0.7499999999999999    0.3749999999999998 # U19
  0.1250000000000002    0.7500000000000002    0.8750000000000001 # U20
  0.2619999999999999    0.7380000000000000    0.2380000000000001 # U21
  0.7499999999999999    0.2499999999999999    0.0000000000000000 # U22
  0.7499999999999999    0.7499999999999999    0.0000000000000000 # U23
  0.6250000000000000    0.2500000000000001    0.8750000000000001 # U24
  0.6250000000000002    0.7500000000000002    0.8750000000000001 # U25
  0.1250000000000002    0.2500000000000001    0.8750000000000001 # U26
  0.6250000000000000    0.2500000000000001    0.3749999999999998 # U27
  0.7620000000000000    0.2380000000000001    0.7380000000000000 # U28
  0.0000000000000000    0.5000000000000000    0.2499999999999999 # U29
  0.5000000000000000    0.5000000000000000    0.2499999999999999 # U30
  0.0000000000000000    0.3749999999999998    0.1249999999999999 # U31
  0.5000000000000000    0.3749999999999998    0.1249999999999999 # U32
  0.0000000000000000    0.8750000000000001    0.1249999999999999 # U33
  0.0000000000000000    0.3750000000000001    0.6250000000000000 # U34
  0.0120000000000000    0.5120000000000000    0.9879999999999997 # U35
  0.5000000000000000    0.0000000000000000    0.7499999999999999 # U36
  0.0000000000000000    0.0000000000000000    0.7499999999999999 # U37
  0.5000000000000000    0.8750000000000001    0.6250000000000000 # U38
  0.0000000000000000    0.8750000000000001    0.6250000000000000 # U39
  0.5000000000000000    0.3750000000000001    0.6250000000000000 # U40
  0.5000000000000000    0.8750000000000001    0.1249999999999999 # U41
  0.5120000000000000    0.0120000000000000    0.4880000000000000 # U42
  0.2499999999999999    0.2499999999999999    0.0000000000000000 # U43
  0.2500000000000001    0.7499999999999999    0.0000000000000000 # U44
  0.3750000000000001    0.2500000000000001    0.8750000000000001 # U45
  0.3750000000000001    0.7500000000000002    0.8750000000000001 # U46
  0.8750000000000001    0.2500000000000001    0.8750000000000001 # U47
  0.3749999999999998    0.2500000000000001    0.3749999999999998 # U48
  0.2380000000000001    0.2620000000000002    0.7380000000000000 # U49
  0.7499999999999999    0.7499999999999999    0.5000000000000000 # U50
  0.7499999999999999    0.2500000000000001    0.5000000000000000 # U51
  0.8750000000000001    0.7499999999999999    0.3749999999999998 # U52
  0.8750000000000001    0.2500000000000001    0.3749999999999998 # U53
  0.3750000000000001    0.7499999999999999    0.3749999999999998 # U54
  0.8750000000000001    0.7500000000000002    0.8750000000000001 # U55
  0.7380000000000000    0.7620000000000000    0.2380000000000001 # U56
  0.2500000000000001    0.0000000000000000    0.7499999999999999 # U57
  0.7499999999999999    0.0000000000000000    0.7499999999999999 # U58
  0.2500000000000001    0.1250000000000002    0.8750000000000001 # U59
  0.7499999999999999    0.1250000000000002    0.8750000000000001 # U60
  0.2500000000000001    0.1249999999999999    0.3749999999999998 # U61
  0.2500000000000001    0.6250000000000000    0.8750000000000001 # U62
  0.7499999999999999    0.5000000000000000    0.2499999999999999 # U63
  0.2500000000000001    0.5000000000000000    0.2499999999999999 # U64
  0.7499999999999999    0.6250000000000000    0.3749999999999998 # U65
  0.2500000000000001    0.6250000000000000    0.3749999999999998 # U66
  0.7499999999999999    0.6250000000000000    0.8750000000000001 # U67
  0.7499999999999999    0.1249999999999999    0.3749999999999998 # U68
  0.0000000000000000    0.8750000000000001    0.3749999999999998 # U69
  0.5000000000000000    0.8750000000000001    0.3749999999999998 # U70
  0.0000000000000000    0.3750000000000001    0.3749999999999998 # U71
  0.0000000000000000    0.8750000000000002    0.8750000000000001 # U72
  0.9879999999999997    0.0120000000000000    0.5120000000000000 # U73
  0.5000000000000000    0.3750000000000001    0.8750000000000001 # U74
  0.0000000000000000    0.3750000000000001    0.8750000000000001 # U75
  0.5000000000000003    0.8750000000000002    0.8750000000000001 # U76
  0.5000000000000000    0.3750000000000001    0.3749999999999998 # U77
  0.4880000000000000    0.5120000000000000    0.0120000000000000 # U78
  0.7499999999999999    0.3749999999999998    0.1249999999999999 # U79
  0.2500000000000001    0.3749999999999998    0.1249999999999999 # U80
  0.7499999999999999    0.3750000000000001    0.6250000000000000 # U81
  0.7499999999999999    0.8750000000000001    0.1249999999999999 # U82
  0.7380000000000000    0.2380000000000001    0.2619999999999999 # U83
  0.2500000000000001    0.8750000000000001    0.6250000000000000 # U84
  0.7499999999999999    0.8750000000000001    0.6250000000000000 # U85
  0.2500000000000001    0.8750000000000001    0.1249999999999999 # U86
  0.2500000000000001    0.3750000000000001    0.6250000000000000 # U87
  0.2380000000000001    0.7380000000000001    0.7620000000000000 # U88
  0.0000000000000000    0.2500000000000001    0.2499999999999999 # U89
  0.0000000000000000    0.2500000000000001    0.7499999999999999 # U90
  0.8750000000000001    0.3749999999999998    0.2499999999999999 # U91
  0.8750000000000001    0.3750000000000001    0.7499999999999999 # U92
  0.8750000000000001    0.8750000000000001    0.2499999999999999 # U93
  0.3749999999999998    0.3749999999999998    0.2499999999999999 # U94
  0.5000000000000003    0.7500000000000002    0.7499999999999999 # U95
  0.5000000000000000    0.7499999999999999    0.2499999999999999 # U96
  0.3750000000000001    0.8750000000000002    0.7499999999999999 # U97
  0.3750000000000001    0.8750000000000001    0.2499999999999999 # U98
  0.3750000000000001    0.3750000000000001    0.7499999999999999 # U99
  0.8750000000000001    0.8750000000000002    0.7499999999999999 # U100
  0.5000000000000000    0.1250000000000002    0.8750000000000001 # U101
  0.0000000000000000    0.1250000000000002    0.8750000000000001 # U102
  0.5000000000000000    0.6250000000000000    0.8750000000000001 # U103
  0.5000000000000000    0.1249999999999999    0.3749999999999998 # U104
  0.5120000000000000    0.9879999999999997    0.0120000000000000 # U105
  0.0000000000000000    0.6250000000000000    0.3749999999999998 # U106
  0.5000000000000000    0.6250000000000000    0.3749999999999998 # U107
  0.0000000000000000    0.1249999999999999    0.3749999999999998 # U108
  0.0000000000000000    0.6250000000000000    0.8750000000000001 # U109
  0.0120000000000000    0.4880000000000000    0.5120000000000000 # U110
  0.0000000000000000    0.7499999999999999    0.2499999999999999 # U111
  0.0000000000000000    0.7500000000000002    0.7499999999999999 # U112
  0.1250000000000002    0.8750000000000001    0.2499999999999999 # U113
  0.1250000000000002    0.8750000000000002    0.7499999999999999 # U114
  0.1249999999999999    0.3749999999999998    0.2499999999999999 # U115
  0.6250000000000000    0.8750000000000001    0.2499999999999999 # U116
  0.5000000000000000    0.2500000000000001    0.7499999999999999 # U117
  0.5000000000000000    0.2500000000000001    0.2499999999999999 # U118
  0.6250000000000000    0.3750000000000001    0.7499999999999999 # U119
  0.6250000000000000    0.3749999999999998    0.2499999999999999 # U120
  0.6250000000000002    0.8750000000000002    0.7499999999999999 # U121
  0.1249999999999999    0.3750000000000001    0.7499999999999999 # U122
  0.2499999999999999    0.0000000000000000    0.0000000000000000 # U123
  0.2500000000000001    0.5000000000000000    0.0000000000000000 # U124
  0.1249999999999999    0.0000000000000000    0.1249999999999999 # U125
  0.1249999999999999    0.5000000000000000    0.1249999999999999 # U126
  0.1249999999999999    0.0000000000000000    0.6250000000000000 # U127
  0.6250000000000000    0.0000000000000000    0.1249999999999999 # U128
  0.7499999999999999    0.5000000000000000    0.5000000000000000 # U129
  0.7499999999999999    0.0000000000000000    0.5000000000000000 # U130
  0.6250000000000000    0.5000000000000000    0.6250000000000000 # U131
  0.6250000000000000    0.0000000000000000    0.6250000000000000 # U132
  0.6250000000000000    0.5000000000000000    0.1249999999999999 # U133
  0.1250000000000002    0.5000000000000000    0.6250000000000000 # U134
  0.0000000000000000    0.2499999999999999    0.0000000000000000 # U135
  0.0000000000000000    0.2500000000000001    0.5000000000000000 # U136
  0.1249999999999999    0.1249999999999999    0.0000000000000000 # U137
  0.1249999999999999    0.1249999999999999    0.5000000000000000 # U138
  0.6250000000000000    0.1249999999999999    0.0000000000000000 # U139
  0.1249999999999999    0.6250000000000000    0.0000000000000000 # U140
  0.5000000000000000    0.7499999999999999    0.5000000000000000 # U141
  0.5000000000000000    0.7499999999999999    0.0000000000000000 # U142
  0.6250000000000000    0.6250000000000000    0.5000000000000000 # U143
  0.6250000000000000    0.6250000000000000    0.0000000000000000 # U144
  0.1250000000000002    0.6250000000000000    0.5000000000000000 # U145
  0.6250000000000000    0.1249999999999999    0.5000000000000000 # U146
  0.8750000000000001    0.3749999999999998    0.0000000000000000 # U147
  0.8750000000000001    0.3750000000000001    0.5000000000000000 # U148
  0.3749999999999998    0.3749999999999998    0.0000000000000000 # U149
  0.8750000000000001    0.8750000000000001    0.0000000000000000 # U150
  0.3750000000000001    0.8750000000000001    0.5000000000000000 # U151
  0.3750000000000001    0.8750000000000001    0.0000000000000000 # U152
  0.8750000000000001    0.8750000000000001    0.5000000000000000 # U153
  0.3749999999999998    0.3750000000000001    0.5000000000000000 # U154
  0.2500000000000001    0.0000000000000000    0.5000000000000000 # U155
  0.2500000000000001    0.5000000000000000    0.5000000000000000 # U156
  0.1249999999999999    0.0000000000000000    0.3749999999999998 # U157
  0.1249999999999999    0.5000000000000000    0.3749999999999998 # U158
  0.1249999999999999    0.0000000000000000    0.8750000000000001 # U159
  0.6250000000000000    0.0000000000000000    0.3749999999999998 # U160
  0.7499999999999999    0.5000000000000000    0.0000000000000000 # U161
  0.7499999999999999    0.0000000000000000    0.0000000000000000 # U162
  0.6250000000000000    0.5000000000000000    0.8750000000000001 # U163
  0.6250000000000000    0.0000000000000000    0.8750000000000001 # U164
  0.6250000000000000    0.5000000000000000    0.3749999999999998 # U165
  0.1250000000000002    0.5000000000000000    0.8750000000000001 # U166
  0.5000000000000000    0.2499999999999999    0.0000000000000000 # U167
  0.5000000000000000    0.2500000000000001    0.5000000000000000 # U168
  0.3749999999999998    0.1249999999999999    0.0000000000000000 # U169
  0.3749999999999998    0.1249999999999999    0.5000000000000000 # U170
  0.8750000000000001    0.1249999999999999    0.0000000000000000 # U171
  0.3749999999999998    0.6250000000000000    0.0000000000000000 # U172
  0.0000000000000000    0.7499999999999999    0.5000000000000000 # U173
  0.0000000000000000    0.7499999999999999    0.0000000000000000 # U174
  0.8750000000000001    0.6250000000000000    0.5000000000000000 # U175
  0.8750000000000001    0.6250000000000000    0.0000000000000000 # U176
  0.3749999999999998    0.6250000000000000    0.5000000000000000 # U177
  0.8750000000000001    0.1249999999999999    0.5000000000000000 # U178
  0.8750000000000001    0.5000000000000000    0.1249999999999999 # U179
  0.8750000000000001    0.0000000000000000    0.1249999999999999 # U180
  0.8750000000000001    0.5000000000000000    0.6250000000000000 # U181
  0.3749999999999998    0.5000000000000000    0.1249999999999999 # U182
  0.3749999999999998    0.0000000000000000    0.6250000000000000 # U183
  0.3749999999999998    0.5000000000000000    0.6250000000000000 # U184
  0.3749999999999998    0.0000000000000000    0.1249999999999999 # U185
  0.8750000000000001    0.0000000000000000    0.6250000000000000 # U186
  0.3750000000000001    0.0000000000000000    0.8750000000000001 # U187
  0.3750000000000001    0.5000000000000000    0.8750000000000001 # U188
  0.3749999999999998    0.0000000000000000    0.3749999999999998 # U189
  0.8750000000000001    0.0000000000000000    0.8750000000000001 # U190
  0.8750000000000001    0.5000000000000000    0.3749999999999998 # U191
  0.8750000000000001    0.0000000000000000    0.3749999999999998 # U192
  0.8750000000000001    0.5000000000000000    0.8750000000000001 # U193
  0.3749999999999998    0.5000000000000000    0.3749999999999998 # U194
  0.1250000000000002    0.8750000000000001    0.5000000000000000 # U195
  0.1249999999999999    0.8750000000000001    0.0000000000000000 # U196
  0.6250000000000000    0.8750000000000001    0.5000000000000000 # U197
  0.1249999999999999    0.3750000000000001    0.5000000000000000 # U198
  0.6250000000000000    0.3749999999999998    0.0000000000000000 # U199
  0.6250000000000000    0.3750000000000001    0.5000000000000000 # U200
  0.1249999999999999    0.3749999999999998    0.0000000000000000 # U201
  0.6250000000000000    0.8750000000000001    0.0000000000000000 # U202
  0.8750000000000001    0.2499999999999999    0.1249999999999999 # U203
  0.8750000000000001    0.7499999999999999    0.1249999999999999 # U204
  0.3749999999999998    0.2499999999999999    0.1249999999999999 # U205
  0.8750000000000001    0.2500000000000001    0.6250000000000000 # U206
  0.3750000000000001    0.7499999999999999    0.6250000000000000 # U207
  0.3749999999999998    0.2500000000000001    0.6250000000000000 # U208
  0.8750000000000001    0.7499999999999999    0.6250000000000000 # U209
  0.3750000000000001    0.7499999999999999    0.1249999999999999 # U210
  0.1249999999999999    0.2499999999999999    0.1249999999999999 # U211
  0.1249999999999999    0.7499999999999999    0.1249999999999999 # U212
  0.6250000000000000    0.2499999999999999    0.1249999999999999 # U213
  0.1249999999999999    0.2500000000000001    0.6250000000000000 # U214
  0.2619999999999999    0.2619999999999999    0.2619999999999999 # U215
  0.6250000000000000    0.7499999999999999    0.6250000000000000 # U216
  0.6250000000000000    0.2500000000000001    0.6250000000000000 # U217
  0.1250000000000002    0.7499999999999999    0.6250000000000000 # U218
  0.6250000000000000    0.7499999999999999    0.1249999999999999 # U219
  0.7620000000000000    0.7620000000000002    0.7620000000000000 # U220
  0.2499999999999999    0.0000000000000000    0.2499999999999999 # U221
  0.7499999999999999    0.0000000000000000    0.2499999999999999 # U222
  0.2500000000000001    0.8750000000000001    0.3749999999999998 # U223
  0.7499999999999999    0.8750000000000001    0.3749999999999998 # U224
  0.2500000000000001    0.8750000000000002    0.8750000000000001 # U225
  0.2500000000000001    0.3750000000000001    0.3749999999999998 # U226
  0.7499999999999999    0.5000000000000000    0.7499999999999999 # U227
  0.2500000000000001    0.5000000000000000    0.7499999999999999 # U228
  0.7499999999999999    0.3750000000000001    0.8750000000000001 # U229
  0.2500000000000001    0.3750000000000001    0.8750000000000001 # U230
  0.7499999999999999    0.3750000000000001    0.3749999999999998 # U231
  0.7499999999999999    0.8750000000000002    0.8750000000000001 # U232
  0.2499999999999999    0.1249999999999999    0.1249999999999999 # U233
  0.7499999999999999    0.1249999999999999    0.1249999999999999 # U234
  0.2500000000000001    0.1249999999999999    0.6250000000000000 # U235
  0.2500000000000001    0.6250000000000000    0.1249999999999999 # U236
  0.7499999999999999    0.6250000000000000    0.6250000000000000 # U237
  0.2500000000000001    0.6250000000000000    0.6250000000000000 # U238
  0.7499999999999999    0.6250000000000000    0.1249999999999999 # U239
  0.7499999999999999    0.1249999999999999    0.6250000000000000 # U240
  0.3750000000000001    0.1250000000000002    0.7499999999999999 # U241
  0.3749999999999998    0.1249999999999999    0.2499999999999999 # U242
  0.3750000000000001    0.6250000000000000    0.7499999999999999 # U243
  0.8750000000000001    0.1250000000000002    0.7499999999999999 # U244
  0.8750000000000001    0.6250000000000000    0.2499999999999999 # U245
  0.8750000000000001    0.6250000000000000    0.7499999999999999 # U246
  0.8750000000000001    0.1249999999999999    0.2499999999999999 # U247
  0.3749999999999998    0.6250000000000000    0.2499999999999999 # U248
  0.1249999999999999    0.1249999999999999    0.2499999999999999 # U249
  0.1249999999999999    0.1250000000000002    0.7499999999999999 # U250
  0.1249999999999999    0.6250000000000000    0.2499999999999999 # U251
  0.6250000000000000    0.1249999999999999    0.2499999999999999 # U252
  0.6250000000000000    0.6250000000000000    0.7499999999999999 # U253
  0.6250000000000000    0.6250000000000000    0.2499999999999999 # U254
  0.6250000000000000    0.1250000000000002    0.7499999999999999 # U255
  0.1250000000000002    0.6250000000000000    0.7499999999999999 # U256
  0.6874999999999998    0.4374999999999999    0.1875000000000001 # O1
  0.6874999999999998    0.4375000000000001    0.4374999999999999 # O2
  0.6875000000000000    0.6874999999999998    0.1875000000000001 # O3
  0.6875000000000000    0.6875000000000000    0.4374999999999999 # O4
  0.6875000000000000    0.9375000000000001    0.1875000000000001 # O5
  0.6875000000000000    0.9375000000000001    0.4374999999999999 # O6
  0.9375000000000001    0.4374999999999999    0.1875000000000001 # O7
  0.9375000000000001    0.4375000000000001    0.4374999999999999 # O8
  0.1875000000000001    0.4374999999999999    0.1875000000000001 # O9
  0.1875000000000001    0.4375000000000001    0.4374999999999999 # O10
  0.1875000000000001    0.1875000000000001    0.1875000000000001 # O11
  0.4374999999999999    0.4375000000000001    0.4374999999999999 # O12
  0.1249999999999999    0.1249999999999999    0.1249999999999999 # O13
  0.8750000000000001    0.8750000000000002    0.8750000000000001 # O14
  0.1249999999999999    0.0000000000000000    0.2499999999999999 # O15
  0.6250000000000000    0.0000000000000000    0.2499999999999999 # O16
  0.1249999999999999    0.1080000000000001    0.3579999999999999 # O17
  0.1875000000000001    0.9375000000000001    0.6874999999999998 # O18
  0.1875000000000001    0.9375000000000002    0.9375000000000001 # O19
  0.1875000000000001    0.1875000000000001    0.6874999999999998 # O20
  0.1875000000000001    0.1875000000000001    0.9375000000000001 # O21
  0.1875000000000001    0.4375000000000001    0.6874999999999998 # O22
  0.1875000000000001    0.4375000000000001    0.9375000000000001 # O23
  0.4375000000000001    0.9375000000000001    0.6874999999999998 # O24
  0.4375000000000001    0.9375000000000002    0.9375000000000001 # O25
  0.6875000000000000    0.9375000000000001    0.6874999999999998 # O26
  0.6875000000000000    0.9375000000000002    0.9375000000000001 # O27
  0.6875000000000000    0.6875000000000000    0.6874999999999998 # O28
  0.9375000000000001    0.9375000000000002    0.9375000000000001 # O29
  0.6250000000000000    0.6250000000000000    0.6250000000000000 # O30
  0.3749999999999998    0.3750000000000001    0.3749999999999998 # O31
  0.6250000000000000    0.5000000000000000    0.7499999999999999 # O32
  0.1250000000000002    0.5000000000000000    0.7499999999999999 # O33
  0.6250000000000000    0.6080000000000001    0.8579999999999999 # O34
  0.8125000000000000    0.4375000000000001    0.4374999999999999 # O35
  0.8125000000000000    0.4375000000000001    0.6874999999999998 # O36
  0.5624999999999999    0.4375000000000001    0.4374999999999999 # O37
  0.5625000000000001    0.4375000000000001    0.6874999999999998 # O38
  0.3125000000000000    0.4375000000000001    0.4374999999999999 # O39
  0.3125000000000000    0.4375000000000001    0.6874999999999998 # O40
  0.8125000000000000    0.6875000000000000    0.4374999999999999 # O41
  0.8125000000000000    0.6875000000000000    0.6874999999999998 # O42
  0.8125000000000000    0.9375000000000001    0.4374999999999999 # O43
  0.8125000000000000    0.9375000000000001    0.6874999999999998 # O44
  0.0625000000000001    0.9375000000000001    0.4374999999999999 # O45
  0.8125000000000000    0.1875000000000001    0.6874999999999998 # O46
  0.1250000000000002    0.8750000000000001    0.3749999999999998 # O47
  0.3749999999999998    0.6250000000000000    0.1249999999999999 # O48
  0.2500000000000001    0.8750000000000001    0.5000000000000000 # O49
  0.2500000000000001    0.3750000000000001    0.5000000000000000 # O50
  0.1420000000000001    0.8750000000000001    0.6079999999999999 # O51
  0.3125000000000000    0.9375000000000002    0.9375000000000001 # O52
  0.3125000000000000    0.9375000000000001    0.1875000000000001 # O53
  0.0625000000000001    0.9375000000000002    0.9375000000000001 # O54
  0.0625000000000001    0.9375000000000001    0.1875000000000001 # O55
  0.8125000000000000    0.9375000000000002    0.9375000000000001 # O56
  0.8125000000000000    0.9375000000000001    0.1875000000000001 # O57
  0.3125000000000000    0.1875000000000001    0.9375000000000001 # O58
  0.3125000000000000    0.1875000000000001    0.1875000000000001 # O59
  0.3125000000000000    0.4375000000000001    0.9375000000000001 # O60
  0.3125000000000000    0.4374999999999999    0.1875000000000001 # O61
  0.5625000000000001    0.4375000000000001    0.9375000000000001 # O62
  0.3125000000000000    0.6874999999999998    0.1875000000000001 # O63
  0.6250000000000000    0.3750000000000001    0.8750000000000001 # O64
  0.8750000000000001    0.1249999999999999    0.6250000000000000 # O65
  0.7499999999999999    0.3749999999999998    0.0000000000000000 # O66
  0.7499999999999999    0.8750000000000001    0.0000000000000000 # O67
  0.6419999999999998    0.3749999999999998    0.1080000000000001 # O68
  0.3125000000000000    0.0625000000000001    0.1875000000000001 # O69
  0.3125000000000000    0.0625000000000001    0.4374999999999999 # O70
  0.3125000000000000    0.8125000000000000    0.1875000000000001 # O71
  0.3125000000000000    0.8125000000000000    0.4374999999999999 # O72
  0.3125000000000000    0.5624999999999999    0.1875000000000001 # O73
  0.3125000000000000    0.5625000000000001    0.4374999999999999 # O74
  0.0625000000000001    0.0625000000000001    0.1875000000000001 # O75
  0.0625000000000001    0.0625000000000001    0.4374999999999999 # O76
  0.8125000000000000    0.0625000000000001    0.1875000000000001 # O77
  0.8125000000000000    0.0625000000000001    0.4374999999999999 # O78
  0.8125000000000000    0.3125000000000000    0.1875000000000001 # O79
  0.5624999999999999    0.0625000000000001    0.4374999999999999 # O80
  0.8750000000000001    0.3749999999999998    0.1249999999999999 # O81
  0.1250000000000002    0.6250000000000000    0.8750000000000001 # O82
  0.8750000000000001    0.5000000000000000    0.2499999999999999 # O83
  0.3749999999999998    0.5000000000000000    0.2499999999999999 # O84
  0.8750000000000001    0.3920000000000000    0.3579999999999999 # O85
  0.8125000000000000    0.5625000000000001    0.6874999999999998 # O86
  0.8125000000000000    0.5625000000000001    0.9375000000000001 # O87
  0.8125000000000000    0.3125000000000000    0.6874999999999998 # O88
  0.8125000000000000    0.3125000000000002    0.9375000000000001 # O89
  0.8125000000000000    0.0625000000000001    0.6874999999999998 # O90
  0.8125000000000000    0.0625000000000001    0.9375000000000001 # O91
  0.5625000000000001    0.5625000000000001    0.6874999999999998 # O92
  0.5625000000000001    0.5625000000000001    0.9375000000000001 # O93
  0.3125000000000000    0.5625000000000001    0.6874999999999998 # O94
  0.3125000000000000    0.5625000000000001    0.9375000000000001 # O95
  0.3125000000000000    0.8125000000000000    0.6874999999999998 # O96
  0.0625000000000001    0.5625000000000001    0.9375000000000001 # O97
  0.3750000000000001    0.8750000000000001    0.6250000000000000 # O98
  0.6250000000000000    0.1249999999999999    0.3749999999999998 # O99
  0.3750000000000001    0.0000000000000000    0.7499999999999999 # O100
  0.8750000000000001    0.0000000000000000    0.7499999999999999 # O101
  0.3750000000000001    0.8920000000000003    0.8579999999999999 # O102
  0.6875000000000000    0.5625000000000001    0.9375000000000001 # O103
  0.6874999999999998    0.5624999999999999    0.1875000000000001 # O104
  0.9375000000000001    0.5625000000000001    0.9375000000000001 # O105
  0.9375000000000001    0.5624999999999999    0.1875000000000001 # O106
  0.1875000000000001    0.5625000000000001    0.9375000000000001 # O107
  0.1875000000000001    0.5624999999999999    0.1875000000000001 # O108
  0.6875000000000000    0.3125000000000002    0.9375000000000001 # O109
  0.6874999999999998    0.3125000000000000    0.1875000000000001 # O110
  0.6875000000000000    0.0625000000000001    0.9375000000000001 # O111
  0.6874999999999998    0.0625000000000001    0.1875000000000001 # O112
  0.4375000000000001    0.0625000000000001    0.9375000000000001 # O113
  0.6875000000000000    0.8125000000000000    0.1875000000000001 # O114
  0.3750000000000001    0.1250000000000002    0.8750000000000001 # O115
  0.1249999999999999    0.3750000000000001    0.6250000000000000 # O116
  0.2499999999999999    0.1249999999999999    0.0000000000000000 # O117
  0.2500000000000001    0.6250000000000000    0.0000000000000000 # O118
  0.3579999999999999    0.1249999999999999    0.1080000000000001 # O119
  0.1875000000000001    0.0625000000000001    0.4374999999999999 # O120
  0.1875000000000001    0.0625000000000001    0.6874999999999998 # O121
  0.4374999999999999    0.0625000000000001    0.4374999999999999 # O122
  0.4375000000000001    0.0625000000000001    0.6874999999999998 # O123
  0.6874999999999998    0.0625000000000001    0.4374999999999999 # O124
  0.6875000000000000    0.0625000000000001    0.6874999999999998 # O125
  0.1875000000000001    0.8125000000000000    0.4374999999999999 # O126
  0.1875000000000001    0.8125000000000000    0.6874999999999998 # O127
  0.1875000000000001    0.5625000000000001    0.4374999999999999 # O128
  0.1875000000000001    0.5625000000000001    0.6874999999999998 # O129
  0.9375000000000001    0.5625000000000001    0.4374999999999999 # O130
  0.1875000000000001    0.3125000000000000    0.6874999999999998 # O131
  0.8750000000000001    0.6250000000000000    0.3749999999999998 # O132
  0.6250000000000000    0.8750000000000001    0.1249999999999999 # O133
  0.7499999999999999    0.6250000000000000    0.5000000000000000 # O134
  0.7499999999999999    0.1249999999999999    0.5000000000000000 # O135
  0.8579999999999999    0.6250000000000000    0.6079999999999999 # O136
  0.9375000000000001    0.0625000000000001    0.1875000000000001 # O137
  0.9375000000000001    0.8125000000000000    0.1875000000000001 # O138
  0.9375000000000001    0.0625000000000001    0.4374999999999999 # O139
  0.9375000000000001    0.8125000000000000    0.4374999999999999 # O140
  0.9375000000000001    0.0625000000000001    0.6874999999999998 # O141
  0.9375000000000001    0.8125000000000000    0.6874999999999998 # O142
  0.1875000000000001    0.0625000000000001    0.1875000000000001 # O143
  0.1875000000000001    0.8125000000000000    0.1875000000000001 # O144
  0.4374999999999999    0.0625000000000001    0.1875000000000001 # O145
  0.4375000000000001    0.8125000000000000    0.1875000000000001 # O146
  0.4375000000000001    0.5625000000000001    0.6874999999999998 # O147
  0.4375000000000001    0.3125000000000000    0.6874999999999998 # O148
  0.4375000000000001    0.5625000000000001    0.9375000000000001 # O149
  0.4375000000000001    0.3125000000000002    0.9375000000000001 # O150
  0.4374999999999999    0.5624999999999999    0.1875000000000001 # O151
  0.4374999999999999    0.3125000000000000    0.1875000000000001 # O152
  0.6875000000000000    0.5625000000000001    0.6874999999999998 # O153
  0.6875000000000000    0.3125000000000000    0.6874999999999998 # O154
  0.9375000000000001    0.5625000000000001    0.6874999999999998 # O155
  0.9375000000000001    0.3125000000000000    0.6874999999999998 # O156
  0.6874999999999998    0.5624999999999999    0.3125000000000000 # O157
  0.6874999999999998    0.5624999999999999    0.0625000000000001 # O158
  0.6874999999999998    0.3125000000000000    0.3125000000000000 # O159
  0.6874999999999998    0.3125000000000000    0.0625000000000001 # O160