$cell vectors
1.0
 25.0599882082232170    0.0000000000000000    0.0000000000000000
  0.0000000000000000   25.0599882082232170    0.0000000000000000
  0.0000000000000000    0.0000000000000053   25.0599882082232170
 144 1456
Direct
  0.0841000000000001   -0.0000000000000001    0.3090999999999999 # Xe1
  0.1258000000000000    0.2500000000000001    0.2499999999999999 # Xe2
  0.1258000000000000    0.7500000000000000    0.7499999999999998 # Xe3
  0.6258000000000000    0.2499999999999999    0.7499999999999998 # Xe4
  0.6258000000000000    0.7499999999999998    0.2499999999999999 # Xe5
  0.9158999999999998   -0.0000000000000001    0.6909000000000002 # Xe6
  0.8741999999999999    0.7500000000000000    0.7499999999999998 # Xe7
  0.9158999999999998    0.4999999999999999    0.1909000000000001 # Xe8
  0.8741999999999999    0.2500000000000001    0.2499999999999999 # Xe9
  0.4159000000000000    0.0000000000000000    0.1909000000000001 # Xe10
  0.3741999999999999    0.7499999999999998    0.2499999999999999 # Xe11
  0.4159000000000000    0.4999999999999998    0.6909000000000002 # Xe12
  0.3741999999999999    0.2499999999999999    0.7499999999999998 # Xe13
  0.0000000000000000    0.0840999999999999    0.8090999999999998 # Xe14
  0.7499999999999998    0.1257999999999999    0.7499999999999998 # Xe15
  0.0000000000000000    0.5840999999999997    0.3090999999999999 # Xe16
  0.7499999999999998    0.6258000000000000    0.2499999999999999 # Xe17
  0.5000000000000000    0.0841000000000000    0.3090999999999999 # Xe18
  0.2499999999999999    0.1258000000000000    0.2499999999999999 # Xe19
  0.5000000000000002    0.5840999999999998    0.8090999999999998 # Xe20
  0.2500000000000001    0.6257999999999999    0.7499999999999998 # Xe21
  0.0000000000000000    0.9158999999999998    0.1909000000000001 # Xe22
  0.2500000000000001    0.8741999999999999    0.2499999999999999 # Xe23
  0.0000000000000000    0.4158999999999999    0.6909000000000002 # Xe24
  0.2500000000000001    0.3741999999999998    0.7499999999999998 # Xe25
  0.5000000000000002    0.9159000000000000    0.6909000000000002 # Xe26
  0.7499999999999998    0.8741999999999999    0.7499999999999998 # Xe27
  0.5000000000000000    0.4159000000000000    0.1909000000000001 # Xe28
  0.7499999999999998    0.3741999999999999    0.2499999999999999 # Xe29
  0.9158999999999998   -0.0000000000000001    0.3090999999999999 # Xe30
  0.8741999999999999    0.7499999999999998    0.2499999999999999 # Xe31
  0.9158999999999998    0.4999999999999998    0.8090999999999998 # Xe32
  0.8741999999999999    0.2499999999999999    0.7499999999999998 # Xe33
  0.4159000000000000   -0.0000000000000002    0.8090999999999998 # Xe34
  0.3742000000000001    0.7500000000000000    0.7499999999999998 # Xe35
  0.4159000000000000    0.4999999999999999    0.3090999999999999 # Xe36
  0.3741999999999999    0.2500000000000001    0.2499999999999999 # Xe37
  0.0841000000000001   -0.0000000000000001    0.6909000000000002 # Xe38
  0.0841000000000001    0.4999999999999999    0.1909000000000001 # Xe39
  0.1258000000000000    0.7499999999999998    0.2499999999999999 # Xe40
  0.5840999999999998    0.0000000000000000    0.1909000000000001 # Xe41
  0.5841000000000001    0.4999999999999998    0.6909000000000002 # Xe42
  0.0000000000000002    0.9158999999999999    0.8090999999999998 # Xe43
  0.2500000000000001    0.8741999999999999    0.7499999999999998 # Xe44
  0.0000000000000000    0.4159000000000000    0.3090999999999999 # Xe45
  0.2500000000000001    0.3741999999999999    0.2499999999999999 # Xe46
  0.5000000000000000    0.9158999999999997    0.3090999999999999 # Xe47
  0.7499999999999998    0.8741999999999999    0.2499999999999999 # Xe48
  0.5000000000000000    0.4158999999999999    0.8090999999999998 # Xe49
  0.7499999999999998    0.3741999999999998    0.7499999999999998 # Xe50
  0.0000000000000000    0.0841000000000000    0.1909000000000001 # Xe51
  0.7499999999999998    0.1258000000000000    0.2499999999999999 # Xe52
  0.0000000000000000    0.5841000000000000    0.6909000000000002 # Xe53
  0.7499999999999998    0.6257999999999999    0.7499999999999998 # Xe54
  0.5000000000000000    0.0840999999999999    0.6909000000000002 # Xe55
  0.2500000000000001    0.1257999999999999    0.7499999999999998 # Xe56
  0.5000000000000000    0.5840999999999998    0.1909000000000001 # Xe57
  0.2500000000000001    0.6258000000000000    0.2499999999999999 # Xe58
  0.0841000000000001    0.6909000000000001    0.5000000000000000 # Xe59
  0.0841000000000001    0.1909000000000001    0.0000000000000000 # Xe60
  0.5841000000000001    0.6909000000000002    0.0000000000000000 # Xe61
  0.5840999999999998    0.1909000000000000    0.5000000000000000 # Xe62
  0.9158999999999998    0.3091000000000000    0.5000000000000000 # Xe63
  0.9158999999999998    0.8090999999999998    0.0000000000000000 # Xe64
  0.4159000000000000    0.3090999999999999    0.0000000000000000 # Xe65
  0.4159000000000000    0.8090999999999997    0.5000000000000000 # Xe66
  0.0841000000000001    0.3091000000000000    0.5000000000000000 # Xe67
  0.0841000000000001    0.8090999999999998    0.0000000000000000 # Xe68
  0.5840999999999998    0.3090999999999999    0.0000000000000000 # Xe69
  0.5841000000000001    0.8090999999999997    0.5000000000000000 # Xe70
  0.9158999999999998    0.6909000000000001    0.5000000000000000 # Xe71
  0.9158999999999998    0.1909000000000001    0.0000000000000000 # Xe72
  0.4159000000000000    0.6909000000000002    0.0000000000000000 # Xe73
  0.4159000000000000    0.1909000000000000    0.5000000000000000 # Xe74
  0.3090999999999999   -0.0000000000000001    0.4159000000000000 # Xe75
  0.2500000000000001    0.2500000000000001    0.3741999999999999 # Xe76
  0.3091000000000001    0.4999999999999998    0.9158999999999998 # Xe77
  0.2500000000000001    0.7499999999999999    0.8741999999999999 # Xe78
  0.8090999999999998   -0.0000000000000002    0.9158999999999998 # Xe79
  0.7499999999999998    0.2499999999999999    0.8741999999999999 # Xe80
  0.8090999999999998    0.4999999999999999    0.4159000000000000 # Xe81
  0.7499999999999998    0.7499999999999997    0.3741999999999999 # Xe82
  0.7499999999999998    0.7499999999999997    0.6258000000000000 # Xe83
  0.7499999999999998    0.2499999999999999    0.1258000000000000 # Xe84
  0.2500000000000001    0.7499999999999998    0.1258000000000000 # Xe85
  0.1909000000000001    0.4999999999999999    0.5840999999999998 # Xe86
  0.2500000000000001    0.2500000000000000    0.6258000000000000 # Xe87
  0.0841000000000001    0.4999999999999998    0.8090999999999998 # Xe88
  0.1258000000000000    0.2499999999999999    0.7499999999999998 # Xe89
  0.5841000000000001   -0.0000000000000002    0.8090999999999998 # Xe90
  0.6258000000000002    0.7500000000000000    0.7499999999999998 # Xe91
  0.5840999999999998    0.4999999999999999    0.3090999999999999 # Xe92
  0.6258000000000000    0.2500000000000001    0.2499999999999999 # Xe93
  0.6909000000000002   -0.0000000000000001    0.5840999999999998 # Xe94
  0.7499999999999998    0.2500000000000000    0.6258000000000000 # Xe95
  0.6909000000000002    0.5000000000000000    0.0840999999999999 # Xe96
  0.7499999999999998    0.7499999999999998    0.1258000000000000 # Xe97
  0.1909000000000001    0.0000000000000000    0.0840999999999999 # Xe98
  0.2499999999999999    0.2499999999999999    0.1258000000000000 # Xe99
  0.2500000000000001    0.7499999999999997    0.6258000000000000 # Xe100
  0.2500000000000001    0.7499999999999997    0.3741999999999999 # Xe101
  0.2500000000000001    0.2499999999999999    0.8741999999999999 # Xe102
  0.7499999999999998    0.7499999999999999    0.8741999999999999 # Xe103
  0.7499999999999998    0.2500000000000001    0.3741999999999999 # Xe104
  0.3090999999999999    0.0840999999999999    0.0000000000000000 # Xe105
  0.3091000000000001    0.5841000000000000    0.5000000000000000 # Xe106
  0.8090999999999998    0.0841000000000000    0.5000000000000000 # Xe107
  0.8090999999999998    0.5840999999999998    0.0000000000000000 # Xe108
  0.6909000000000002    0.9158999999999998    0.0000000000000000 # Xe109
  0.6909000000000002    0.4158999999999999    0.5000000000000000 # Xe110
  0.1909000000000001    0.9158999999999997    0.5000000000000000 # Xe111
  0.1909000000000001    0.4159000000000000    0.0000000000000000 # Xe112
  0.0000000000000000    0.3090999999999999    0.0840999999999999 # Xe113
  0.0000000000000000    0.8090999999999997    0.5840999999999998 # Xe114
  0.5000000000000000    0.3091000000000000    0.5840999999999998 # Xe115
  0.5000000000000000    0.8090999999999998    0.0840999999999999 # Xe116
  0.0000000000000000    0.6909000000000000    0.9158999999999998 # Xe117
  0.0000000000000000    0.1909000000000000    0.4159000000000000 # Xe118
  0.5000000000000000    0.6909000000000001    0.4159000000000000 # Xe119
  0.5000000000000000    0.1908999999999999    0.9158999999999998 # Xe120
  0.0000000000000000    0.6909000000000002    0.0840999999999999 # Xe121
  0.0000000000000000    0.1909000000000000    0.5840999999999998 # Xe122
  0.5000000000000002    0.6909000000000001    0.5840999999999998 # Xe123
  0.5000000000000000    0.1909000000000000    0.0840999999999999 # Xe124
  0.0000000000000000    0.3090999999999999    0.9158999999999998 # Xe125
  0.0000000000000000    0.8090999999999997    0.4159000000000000 # Xe126
  0.5000000000000000    0.3090999999999998    0.4159000000000000 # Xe127
  0.5000000000000002    0.8090999999999998    0.9158999999999998 # Xe128
  0.3091000000000001    0.9158999999999998    0.0000000000000000 # Xe129
  0.3091000000000001    0.4158999999999999    0.5000000000000000 # Xe130
  0.8090999999999998    0.9158999999999997    0.5000000000000000 # Xe131
  0.8090999999999998    0.4159000000000000    0.0000000000000000 # Xe132
  0.6909000000000002    0.0840999999999999    0.0000000000000000 # Xe133
  0.6909000000000002    0.5841000000000000    0.5000000000000000 # Xe134
  0.1909000000000001    0.0841000000000000    0.5000000000000000 # Xe135
  0.1909000000000001    0.5840999999999998    0.0000000000000000 # Xe136
  0.3090999999999999   -0.0000000000000001    0.5840999999999998 # Xe137
  0.3090999999999999    0.5000000000000000    0.0840999999999999 # Xe138
  0.8090999999999998    0.0000000000000000    0.0840999999999999 # Xe139
  0.8090999999999998    0.4999999999999999    0.5840999999999998 # Xe140
  0.6909000000000002   -0.0000000000000001    0.4159000000000000 # Xe141
  0.6909000000000002    0.4999999999999998    0.9158999999999998 # Xe142
  0.1909000000000001   -0.0000000000000002    0.9158999999999998 # Xe143
  0.1909000000000001    0.4999999999999999    0.4159000000000000 # Xe144
  0.1400999999999999    0.0400999999999999    0.3355999999999999 # F1
  0.1406000000000000   -0.0140000000000001    0.2623999999999999 # F2
  0.0943000000000002    0.9389999999999997    0.3446999999999999 # F3
 -0.0603000000000001    0.0708000000000000    0.3007000000000001 # F4
  0.0535000000000000    0.0199000000000000    0.3715999999999999 # F5
  0.0144000000000001    0.9489999999999998    0.2884000000000000 # F6
  0.0561000000000001    0.2500000000000001    0.2499999999999999 # F7
  0.1127000000000001    0.1846999999999999    0.2844999999999999 # F8
  0.2021000000000001    0.2021000000000000    0.2021000000000001 # F9
  0.1400999999999999    0.5400999999999997    0.8355999999999999 # F10
  0.1406000000000000    0.4859999999999998    0.7623999999999999 # F11
  0.0943000000000002    0.4389999999999997    0.8446999999999999 # F12
 -0.0602999999999999    0.5707999999999998    0.8006999999999999 # F13
  0.0535000000000000    0.5198999999999998    0.8715999999999998 # F14
  0.0144000000000001    0.4489999999999997    0.7883999999999998 # F15
  0.0561000000000001    0.7500000000000000    0.7499999999999998 # F16
  0.1127000000000001    0.6846999999999999    0.7844999999999999 # F17
  0.2021000000000001    0.7021000000000001    0.7020999999999998 # F18
  0.6400999999999998    0.0401000000000000    0.8355999999999999 # F19
  0.6406000000000001   -0.0140000000000002    0.7623999999999999 # F20
  0.5943000000000002    0.9389999999999999    0.8446999999999999 # F21
  0.4397000000000001    0.0707999999999999    0.8006999999999999 # F22
  0.5535000000000000    0.0198999999999999    0.8715999999999998 # F23
  0.5144000000000001    0.9490000000000000    0.7883999999999998 # F24
  0.5561000000000000    0.2499999999999999    0.7499999999999998 # F25
  0.6127000000000000    0.1846999999999998    0.7844999999999999 # F26
  0.7020999999999998    0.2020999999999999    0.7020999999999998 # F27
  0.6400999999999998    0.5400999999999998    0.3355999999999999 # F28
  0.6406000000000001    0.4859999999999999    0.2623999999999999 # F29
  0.5942999999999999    0.4389999999999998    0.3446999999999999 # F30
  0.4396999999999999    0.5707999999999999    0.3007000000000001 # F31
  0.5535000000000000    0.5198999999999999    0.3715999999999999 # F32
  0.5143999999999999    0.4489999999999998    0.2884000000000000 # F33
  0.5561000000000000    0.7499999999999998    0.2499999999999999 # F34
  0.6127000000000000    0.6846999999999999    0.2844999999999999 # F35
  0.7020999999999998    0.7020999999999998    0.2021000000000001 # F36
 -0.1400999999999999    0.9598999999999999    0.6643999999999998 # F37
  0.8594000000000001    0.0139999999999999    0.7375999999999998 # F38
 -0.0943000000000000    0.0609999999999999    0.6552999999999998 # F39
  0.0603000000000001    0.9292000000000000    0.6992999999999999 # F40
  0.9464999999999997   -0.0199000000000000    0.6284000000000000 # F41
 -0.0143999999999999    0.0509999999999999    0.7116000000000000 # F42
  0.9438999999999997    0.7500000000000000    0.7499999999999998 # F43
  0.8872999999999998    0.8152999999999999    0.7155000000000000 # F44
  0.7979000000000001    0.7978999999999998    0.7979000000000001 # F45
 -0.1400999999999999    0.4599000000000000    0.1644000000000000 # F46
  0.8594000000000001    0.5140000000000000    0.2375999999999999 # F47
 -0.0943000000000000    0.5609999999999998    0.1553000000000000 # F48
  0.0603000000000001    0.4291999999999999    0.1992999999999999 # F49
  0.9464999999999997    0.4800999999999999    0.1284000000000001 # F50
 -0.0143999999999999    0.5510000000000000    0.2116000000000000 # F51
  0.9438999999999997    0.2500000000000001    0.2499999999999999 # F52
  0.8872999999999998    0.3152999999999999    0.2155000000000001 # F53
  0.7979000000000001    0.2978999999999999    0.2978999999999999 # F54
  0.3599000000000001    0.9598999999999998    0.1644000000000000 # F55
  0.3593999999999999    0.0140000000000000    0.2375999999999999 # F56
  0.4057000000000000    0.0610000000000000    0.1553000000000000 # F57
  0.5603000000000001    0.9291999999999998    0.1992999999999999 # F58
  0.4464999999999999   -0.0199000000000001    0.1284000000000001 # F59
  0.4856000000000001    0.0510000000000000    0.2116000000000000 # F60
  0.4439000000000001    0.7499999999999998    0.2499999999999999 # F61
  0.3873000000000000    0.8152999999999999    0.2155000000000001 # F62
  0.2978999999999999    0.7978999999999999    0.2978999999999999 # F63
  0.3599000000000001    0.4598999999999999    0.6643999999999998 # F64
  0.3593999999999999    0.5139999999999999    0.7375999999999998 # F65
  0.4057000000000000    0.5609999999999999    0.6552999999999998 # F66
  0.5603000000000001    0.4291999999999997    0.6992999999999999 # F67
  0.4464999999999999    0.4800999999999998    0.6284000000000000 # F68
  0.4856000000000001    0.5509999999999999    0.7116000000000000 # F69
  0.4439000000000001    0.2499999999999999    0.7499999999999998 # F70
  0.3873000000000000    0.3152999999999998    0.7155000000000000 # F71
  0.2978999999999999    0.2978999999999998    0.7979000000000001 # F72
  0.9598999999999998    0.1400999999999998    0.8355999999999999 # F73
  0.0140000000000000    0.1405999999999999    0.7623999999999999 # F74
  0.0610000000000001    0.0943000000000000    0.8446999999999999 # F75
  0.9291999999999998   -0.0603000000000000    0.8006999999999999 # F76
 -0.0199000000000000    0.0534999999999998    0.8715999999999998 # F77
  0.0510000000000000    0.0143999999999999    0.7883999999999998 # F78
  0.7499999999999998    0.0560999999999999    0.7499999999999998 # F79
  0.8152999999999999    0.1126999999999999    0.7844999999999999 # F80
  0.7979000000000001    0.2020999999999999    0.7020999999999998 # F81
  0.9598999999999998    0.6400999999999997    0.3355999999999999 # F82
  0.0140000000000000    0.6406000000000001    0.2623999999999999 # F83
  0.0610000000000001    0.5942999999999998    0.3446999999999999 # F84
  0.9291999999999998    0.4396999999999998    0.3007000000000001 # F85
 -0.0199000000000000    0.5534999999999999    0.3715999999999999 # F86
  0.0510000000000000    0.5143999999999997    0.2884000000000000 # F87
  0.7499999999999998    0.5561000000000000    0.2499999999999999 # F88
  0.8152999999999999    0.6126999999999999    0.2844999999999999 # F89
  0.4599000000000001    0.1400999999999998    0.3355999999999999 # F90
  0.5140000000000000    0.1406000000000000    0.2623999999999999 # F91
  0.5609999999999998    0.0943000000000001    0.3446999999999999 # F92
  0.4291999999999999   -0.0602999999999999    0.3007000000000001 # F93
  0.4800999999999999    0.0535000000000000    0.3715999999999999 # F94
  0.5510000000000000    0.0143999999999998    0.2884000000000000 # F95
  0.2499999999999999    0.0561000000000000    0.2499999999999999 # F96
  0.3153000000000000    0.1127000000000000    0.2844999999999999 # F97
  0.2978999999999999    0.2021000000000000    0.2021000000000001 # F98
  0.4599000000000001    0.6400999999999999    0.8355999999999999 # F99
  0.5140000000000000    0.6405999999999999    0.7623999999999999 # F100
  0.5610000000000001    0.5942999999999997    0.8446999999999999 # F101
  0.4291999999999999    0.4396999999999999    0.8006999999999999 # F102
  0.4800999999999999    0.5534999999999998    0.8715999999999998 # F103
  0.5510000000000000    0.5144000000000000    0.7883999999999998 # F104
  0.2500000000000001    0.5560999999999999    0.7499999999999998 # F105
  0.3153000000000000    0.6126999999999999    0.7844999999999999 # F106
  0.2978999999999999    0.7021000000000001    0.7020999999999998 # F107
  0.0401000000000000   -0.1400999999999999    0.1644000000000000 # F108
 -0.0140000000000000    0.8594000000000001    0.2375999999999999 # F109
  0.9389999999999998   -0.0943000000000000    0.1553000000000000 # F110
  0.0708000000000000    0.0603000000000000    0.1992999999999999 # F111
  0.0199000000000000    0.9464999999999997    0.1284000000000001 # F112
  0.9490000000000000   -0.0143999999999999    0.2116000000000000 # F113
  0.2500000000000001    0.9438999999999997    0.2499999999999999 # F114
  0.1847000000000000    0.8872999999999998    0.2155000000000001 # F115
  0.2021000000000001    0.7978999999999999    0.2978999999999999 # F116
  0.0401000000000000    0.3598999999999999    0.6643999999999998 # F117
 -0.0140000000000000    0.3593999999999997    0.7375999999999998 # F118
  0.9389999999999998    0.4056999999999999    0.6552999999999998 # F119
  0.0708000000000000    0.5603000000000000    0.6992999999999999 # F120
  0.0199000000000000    0.4464999999999998    0.6284000000000000 # F121
  0.9490000000000000    0.4855999999999999    0.7116000000000000 # F122
  0.2500000000000001    0.4439000000000000    0.7499999999999998 # F123
  0.1847000000000000    0.3872999999999998    0.7155000000000000 # F124
  0.2021000000000001    0.2978999999999998    0.7979000000000001 # F125
  0.5400999999999999   -0.1401000000000001    0.6643999999999998 # F126
  0.4860000000000002    0.8593999999999999    0.7375999999999998 # F127
  0.4389999999999999   -0.0943000000000001    0.6552999999999998 # F128
  0.5708000000000000    0.0602999999999999    0.6992999999999999 # F129
  0.5199000000000000    0.9464999999999996    0.6284000000000000 # F130
  0.4489999999999999   -0.0144000000000001    0.7116000000000000 # F131
  0.7499999999999998    0.9439000000000000    0.7499999999999998 # F132
  0.6847000000000000    0.8872999999999996    0.7155000000000000 # F133
  0.7020999999999998    0.7978999999999998    0.7979000000000001 # F134
  0.5400999999999999    0.3598999999999998    0.1644000000000000 # F135
  0.4860000000000000    0.3593999999999998    0.2375999999999999 # F136
  0.4389999999999999    0.4056999999999999    0.1553000000000000 # F137
  0.5708000000000000    0.5602999999999998    0.1992999999999999 # F138
  0.5199000000000000    0.4464999999999999    0.1284000000000001 # F139
  0.4489999999999999    0.4856000000000000    0.2116000000000000 # F140
  0.7499999999999998    0.4438999999999999    0.2499999999999999 # F141
  0.6847000000000000    0.3872999999999999    0.2155000000000001 # F142
  0.7020999999999998    0.2978999999999999    0.2978999999999999 # F143
 -0.1400999999999999    0.9598999999999996    0.3355999999999999 # F144
  0.8594000000000001    0.0140000000000000    0.2623999999999999 # F145
 -0.0943000000000000    0.0610000000000000    0.3446999999999999 # F146
  0.0603000000000001    0.9291999999999997    0.3007000000000001 # F147
  0.9464999999999997   -0.0199000000000001    0.3715999999999999 # F148
 -0.0144000000000001    0.0510000000000000    0.2884000000000000 # F149
  0.9438999999999997    0.7499999999999998    0.2499999999999999 # F150
  0.8872999999999998    0.8152999999999998    0.2844999999999999 # F151
  0.7979000000000001    0.7979000000000001    0.2021000000000001 # F152
 -0.1400999999999999    0.4598999999999999    0.8355999999999999 # F153
  0.8594000000000001    0.5139999999999999    0.7623999999999999 # F154
 -0.0943000000000000    0.5609999999999998    0.8446999999999999 # F155
  0.0603000000000001    0.4291999999999997    0.8006999999999999 # F156
  0.9464999999999997    0.4800999999999997    0.8715999999999998 # F157
 -0.0143999999999999    0.5509999999999999    0.7883999999999998 # F158
  0.9438999999999997    0.2499999999999999    0.7499999999999998 # F159
  0.8872999999999998    0.3152999999999998    0.7844999999999999 # F160
  0.7979000000000001    0.2978999999999998    0.7020999999999998 # F161
  0.3599000000000001    0.9598999999999998    0.8355999999999999 # F162
  0.3593999999999999    0.0139999999999998    0.7623999999999999 # F163
  0.4057000000000000    0.0609999999999999    0.8446999999999999 # F164
  0.5603000000000001    0.9291999999999999    0.8006999999999999 # F165
  0.4464999999999999   -0.0199000000000000    0.8715999999999998 # F166
  0.4856000000000001    0.0509999999999999    0.7883999999999998 # F167
  0.4439000000000001    0.7500000000000000    0.7499999999999998 # F168
  0.3873000000000002    0.8152999999999999    0.7844999999999999 # F169
  0.2978999999999999    0.7978999999999999    0.7020999999999998 # F170
  0.3598999999999999    0.4599000000000000    0.3355999999999999 # F171
  0.3593999999999999    0.5140000000000000    0.2623999999999999 # F172
  0.4057000000000000    0.5609999999999999    0.3446999999999999 # F173
  0.5602999999999998    0.4291999999999999    0.3007000000000001 # F174
  0.4464999999999999    0.4800999999999999    0.3715999999999999 # F175
  0.4855999999999999    0.5509999999999999    0.2884000000000000 # F176
  0.4439000000000000    0.2500000000000001    0.2499999999999999 # F177
  0.3873000000000000    0.3152999999999999    0.2844999999999999 # F178
  0.2978999999999999    0.2978999999999999    0.2021000000000001 # F179
  0.1401000000000001    0.0400999999999998    0.6643999999999998 # F180
  0.1406000000000000   -0.0140000000000002    0.7375999999999998 # F181
  0.0943000000000002    0.9390000000000001    0.6552999999999998 # F182
 -0.0602999999999999    0.0707999999999999    0.6992999999999999 # F183
  0.0535000000000000    0.0198999999999999    0.6284000000000000 # F184
  0.0144000000000001    0.9490000000000000    0.7116000000000000 # F185
  0.1127000000000001    0.1846999999999999    0.7155000000000000 # F186
  0.2021000000000001    0.2020999999999999    0.7979000000000001 # F187
  0.1401000000000001    0.5400999999999999    0.1644000000000000 # F188
  0.1406000000000000    0.4859999999999999    0.2375999999999999 # F189
  0.0943000000000002    0.4389999999999998    0.1553000000000000 # F190
 -0.0602999999999999    0.5708000000000000    0.1992999999999999 # F191
  0.0535000000000000    0.5199000000000000    0.1284000000000001 # F192
  0.0144000000000001    0.4489999999999998    0.2116000000000000 # F193
  0.0561000000000001    0.7499999999999998    0.2499999999999999 # F194
  0.1127000000000001    0.6847000000000000    0.2155000000000001 # F195
  0.2021000000000001    0.7020999999999997    0.2978999999999999 # F196
  0.6400999999999998    0.0400999999999999    0.1644000000000000 # F197
  0.6406000000000001   -0.0140000000000001    0.2375999999999999 # F198
  0.5942999999999999    0.9389999999999998    0.1553000000000000 # F199
  0.4396999999999999    0.0708000000000000    0.1992999999999999 # F200
  0.5535000000000000    0.0199000000000000    0.1284000000000001 # F201
  0.5144000000000001    0.9490000000000000    0.2116000000000000 # F202
  0.6127000000000000    0.1846999999999999    0.2155000000000001 # F203
  0.7020999999999998    0.2021000000000000    0.2978999999999999 # F204
  0.6400999999999998    0.5400999999999998    0.6643999999999998 # F205
  0.6406000000000001    0.4859999999999998    0.7375999999999998 # F206
  0.5942999999999999    0.4389999999999998    0.6552999999999998 # F207
  0.4397000000000001    0.5707999999999999    0.6992999999999999 # F208
  0.5535000000000000    0.5198999999999999    0.6284000000000000 # F209
  0.5144000000000001    0.4489999999999997    0.7116000000000000 # F210
  0.6127000000000000    0.6846999999999999    0.7155000000000000 # F211
  0.7020999999999998    0.7020999999999999    0.7979000000000001 # F212
  0.0401000000000000   -0.1401000000000001    0.8355999999999999 # F213
 -0.0139999999999998    0.8593999999999999    0.7623999999999999 # F214
  0.9389999999999998   -0.0943000000000001    0.8446999999999999 # F215
  0.0708000000000000    0.0602999999999999    0.8006999999999999 # F216
  0.0199000000000000    0.9464999999999998    0.8715999999999998 # F217
  0.9490000000000000   -0.0144000000000001    0.7883999999999998 # F218
  0.2500000000000001    0.9439000000000000    0.7499999999999998 # F219
  0.1847000000000000    0.8872999999999996    0.7844999999999999 # F220
  0.2021000000000001    0.7978999999999999    0.7020999999999998 # F221
  0.0401000000000000    0.3598999999999998    0.3355999999999999 # F222
 -0.0140000000000000    0.3593999999999998    0.2623999999999999 # F223
  0.9389999999999998    0.4056999999999999    0.3446999999999999 # F224
  0.0708000000000000    0.5602999999999997    0.3007000000000001 # F225
  0.0199000000000000    0.4464999999999998    0.3715999999999999 # F226
  0.9490000000000000    0.4855999999999998    0.2884000000000000 # F227
  0.2500000000000001    0.4438999999999999    0.2499999999999999 # F228
  0.1847000000000000    0.3872999999999999    0.2844999999999999 # F229
  0.2021000000000001    0.2978999999999999    0.2021000000000001 # F230
  0.5400999999999999   -0.1401000000000002    0.3355999999999999 # F231
  0.4860000000000000    0.8594000000000001    0.2623999999999999 # F232
  0.4389999999999999   -0.0943000000000000    0.3446999999999999 # F233
  0.5708000000000000    0.0603000000000000    0.3007000000000001 # F234
  0.5199000000000000    0.9464999999999996    0.3715999999999999 # F235
  0.4489999999999999   -0.0144000000000002    0.2884000000000000 # F236
  0.7499999999999998    0.9438999999999997    0.2499999999999999 # F237
  0.6847000000000000    0.8872999999999996    0.2844999999999999 # F238
  0.7020999999999998    0.7979000000000001    0.2021000000000001 # F239
  0.5400999999999999    0.3598999999999997    0.8355999999999999 # F240
  0.4860000000000000    0.3593999999999997    0.7623999999999999 # F241
  0.4389999999999999    0.4056999999999998    0.8446999999999999 # F242
  0.5708000000000000    0.5602999999999999    0.8006999999999999 # F243
  0.5199000000000000    0.4464999999999997    0.8715999999999998 # F244
  0.4489999999999999    0.4855999999999999    0.7883999999999998 # F245
  0.7499999999999998    0.4439000000000000    0.7499999999999998 # F246
  0.6847000000000000    0.3872999999999998    0.7844999999999999 # F247
  0.7020999999999998    0.2978999999999998    0.7020999999999998 # F248
  0.9598999999999998    0.1401000000000001    0.1644000000000000 # F249
  0.0140000000000000    0.1406000000000000    0.2375999999999999 # F250
  0.0610000000000001    0.0942999999999999    0.1553000000000000 # F251
  0.9291999999999998   -0.0603000000000001    0.1992999999999999 # F252
 -0.0199000000000000    0.0535000000000000    0.1284000000000001 # F253
  0.0510000000000000    0.0144000000000001    0.2116000000000000 # F254
  0.7499999999999998    0.0561000000000000    0.2499999999999999 # F255
  0.8152999999999999    0.1127000000000000    0.2155000000000001 # F256
  0.7979000000000001    0.2021000000000000    0.2978999999999999 # F257
  0.9598999999999998    0.6401000000000000    0.6643999999999998 # F258
  0.0140000000000000    0.6405999999999999    0.7375999999999998 # F259
  0.0610000000000001    0.5942999999999998    0.6552999999999998 # F260
  0.9291999999999998    0.4396999999999999    0.6992999999999999 # F261
 -0.0198999999999998    0.5534999999999999    0.6284000000000000 # F262
  0.0510000000000000    0.5144000000000000    0.7116000000000000 # F263
  0.7499999999999998    0.5560999999999999    0.7499999999999998 # F264
  0.8152999999999999    0.6126999999999999    0.7155000000000000 # F265
  0.7979000000000001    0.7020999999999999    0.7979000000000001 # F266
  0.4599000000000001    0.1401000000000000    0.6643999999999998 # F267
  0.5140000000000000    0.1405999999999999    0.7375999999999998 # F268
  0.5610000000000001    0.0943000000000000    0.6552999999999998 # F269
  0.4291999999999999   -0.0603000000000000    0.6992999999999999 # F270