$cell vectors
1.0
 10.1679952155312687    0.0000000000000000    0.0000000000000000
  0.0000000000000000   10.1679952155312687    0.0000000000000000
  0.0000000000000000    0.0000000000000000   10.1679952155312687
 12 12 34
Direct
  0.2899000000000003    0.0000000000000000    0.0000000000000000 # La1
  0.7899000000000002    0.5000000000000003    0.5000000000000003 # La2
  0.0000000000000000    0.7101000000000004    0.0000000000000000 # La3
  0.5000000000000003    0.2101000000000001    0.5000000000000003 # La4
  0.7101000000000004    0.0000000000000000    0.0000000000000000 # La5
  0.2101000000000001    0.5000000000000003    0.5000000000000003 # La6
  0.0000000000000000    0.2899000000000003    0.0000000000000000 # La7
  0.5000000000000003    0.7899000000000002    0.5000000000000003 # La8
  0.0000000000000000    0.0000000000000000    0.2899000000000003 # La9
  0.5000000000000003    0.5000000000000003    0.7899000000000002 # La10
  0.0000000000000000    0.0000000000000000    0.7101000000000004 # La11
  0.5000000000000003    0.5000000000000003    0.2101000000000001 # La12
  0.2499999999999999    0.5000000000000003    0.0000000000000000 # Ni1
  0.7500000000000003    0.0000000000000000    0.5000000000000003 # Ni2
  0.5000000000000003    0.7500000000000003    0.0000000000000000 # Ni3
  0.0000000000000000    0.2499999999999999    0.5000000000000003 # Ni4
  0.7500000000000003    0.5000000000000003    0.0000000000000000 # Ni5
  0.2499999999999999    0.0000000000000000    0.5000000000000003 # Ni6
  0.5000000000000003    0.2499999999999999    0.0000000000000000 # Ni7
  0.0000000000000000    0.7500000000000003    0.5000000000000003 # Ni8
  0.0000000000000000    0.5000000000000003    0.2499999999999999 # Ni9
  0.5000000000000003    0.0000000000000000    0.7500000000000003 # Ni10
  0.0000000000000000    0.5000000000000003    0.7500000000000003 # Ni11
  0.5000000000000003    0.0000000000000000    0.2499999999999999 # Ni12
  0.2014000000000002    0.2014000000000002    0.4322000000000004 # P1
  0.2148000000000000    0.2148000000000000    0.2148000000000000 # P2
  0.0000000000000000    0.0000000000000000    0.0000000000000000 # P3
  0.7014000000000001    0.7014000000000001    0.9322000000000001 # P4
  0.7148000000000003    0.7148000000000003    0.7148000000000003 # P5
  0.5000000000000003    0.5000000000000003    0.5000000000000003 # P6
  0.2014000000000002    0.7986000000000001    0.5678000000000004 # P7
  0.2148000000000000    0.7852000000000002    0.7852000000000002 # P8
  0.7014000000000001    0.2986000000000001    0.0678000000000001 # P9
  0.7148000000000003    0.2852000000000004    0.2851999999999998 # P10
  0.7986000000000001    0.7986000000000001    0.4322000000000004 # P11
  0.7852000000000002    0.7852000000000002    0.2148000000000000 # P12
  0.2986000000000001    0.2986000000000001    0.9322000000000001 # P13
  0.2852000000000004    0.2852000000000004    0.7148000000000003 # P14
  0.7986000000000001    0.2014000000000002    0.5678000000000004 # P15
  0.7852000000000002    0.2148000000000000    0.7852000000000002 # P16
  0.2986000000000001    0.7014000000000001    0.0678000000000001 # P17
  0.2852000000000004    0.7148000000000003    0.2851999999999998 # P18
  0.7986000000000001    0.4322000000000004    0.7986000000000001 # P19
  0.2986000000000001    0.9322000000000001    0.2986000000000001 # P20
  0.7986000000000001    0.5678000000000004    0.2014000000000002 # P21
  0.2986000000000001    0.0678000000000001    0.7014000000000001 # P22
  0.5678000000000004    0.7986000000000001    0.2014000000000002 # P23
  0.0678000000000001    0.2986000000000001    0.7014000000000001 # P24
  0.4322000000000004    0.7986000000000004    0.7986000000000001 # P25
  0.9322000000000001    0.2986000000000001    0.2986000000000001 # P26
  0.4322000000000004    0.2014000000000002    0.2014000000000002 # P27
  0.9322000000000001    0.7014000000000001    0.7014000000000001 # P28
  0.2014000000000002    0.4322000000000004    0.2014000000000002 # P29
  0.7014000000000001    0.9322000000000001    0.7014000000000001 # P30
  0.5678000000000004    0.2014000000000002    0.7986000000000001 # P31
  0.0678000000000001    0.7014000000000001    0.2986000000000001 # P32
  0.2014000000000002    0.5678000000000004    0.7986000000000001 # P33
  0.7014000000000001    0.0678000000000001    0.2986000000000001 # P34
