$cell vectors
1.0
 10.9799948334513537    0.0000000000000000    0.0000000000000000
  0.0000000000000000   10.9799948334513537    0.0000000000000000
  0.0000000000000000    0.0000000000000000   10.9799948334513537
 32 48
Direct
  0.0000000000000000    0.0000000000000000    0.0000000000000000 # Pu1
  0.2849999999999998    0.0000000000000000    0.2499999999999998 # Pu2
  0.5000000000000000    0.5000000000000000    0.5000000000000000 # Pu3
  0.7849999999999998    0.5000000000000000    0.7499999999999998 # Pu4
  0.7150000000000003    0.0000000000000000    0.7499999999999998 # Pu5
  0.2150000000000003    0.5000000000000000    0.2499999999999998 # Pu6
  0.2499999999999998    0.2849999999999998    0.0000000000000000 # Pu7
  0.7499999999999998    0.7849999999999998    0.5000000000000000 # Pu8
  0.7499999999999998    0.7150000000000003    0.0000000000000000 # Pu9
  0.2500000000000003    0.2150000000000003    0.5000000000000000 # Pu10
  0.0000000000000000    0.2500000000000003    0.2849999999999998 # Pu11
  0.5000000000000000    0.7500000000000004    0.7849999999999998 # Pu12
  0.0000000000000000    0.7499999999999998    0.7150000000000003 # Pu13
  0.5000000000000000    0.2500000000000003    0.2149999999999998 # Pu14
  0.5000000000000000    0.0000000000000000    0.5000000000000000 # Pu15
  0.0000000000000000    0.0000000000000000    0.5000000000000000 # Pu16
  0.2500000000000003    0.7150000000000003    0.5000000000000000 # Pu17
  0.5000000000000000    0.5000000000000000    0.0000000000000000 # Pu18
  0.7499999999999998    0.2149999999999998    0.0000000000000000 # Pu19
  0.7499999999999998    0.2849999999999998    0.5000000000000000 # Pu20
  0.2500000000000003    0.7849999999999998    0.0000000000000000 # Pu21
  0.5000000000000000    0.0000000000000000    0.0000000000000000 # Pu22
  0.5000000000000000    0.2500000000000003    0.7150000000000003 # Pu23
  0.0000000000000000    0.5000000000000000    0.5000000000000000 # Pu24
  0.0000000000000000    0.7499999999999998    0.2149999999999998 # Pu25
  0.5000000000000000    0.7499999999999998    0.2849999999999998 # Pu26
  0.0000000000000000    0.2500000000000003    0.7849999999999998 # Pu27
  0.7150000000000003    0.5000000000000000    0.2499999999999998 # Pu28
  0.2150000000000003    0.0000000000000000    0.7499999999999998 # Pu29
  0.0000000000000000    0.5000000000000000    0.0000000000000000 # Pu30
  0.2850000000000002    0.5000000000000000    0.7499999999999998 # Pu31
  0.7849999999999998    0.0000000000000000    0.2499999999999998 # Pu32
  0.1290000000000001    0.1470000000000001    0.9170000000000000 # O1
  0.6290000000000001    0.6470000000000002    0.4169999999999998 # O2
  0.8710000000000001    0.8530000000000000    0.0830000000000002 # O3
  0.3710000000000000    0.3529999999999999    0.5830000000000003 # O4
  0.9170000000000000    0.1290000000000001    0.1470000000000001 # O5
  0.4169999999999998    0.6290000000000001    0.6470000000000002 # O6
  0.0830000000000002    0.8710000000000001    0.8530000000000000 # O7
  0.5830000000000003    0.3710000000000000    0.3529999999999999 # O8
  0.1470000000000001    0.9170000000000000    0.1290000000000001 # O9
  0.6470000000000002    0.4170000000000003    0.6290000000000001 # O10
  0.8530000000000000    0.0830000000000002    0.8710000000000001 # O11
  0.3529999999999999    0.5830000000000003    0.3710000000000000 # O12
  0.8530000000000000    0.5830000000000003    0.1290000000000001 # O13
  0.3529999999999999    0.0830000000000002    0.6290000000000001 # O14
  0.1470000000000001    0.4170000000000003    0.8710000000000001 # O15
  0.6470000000000002    0.9170000000000000    0.3710000000000000 # O16
  0.9170000000000000    0.8710000000000001    0.3529999999999999 # O17
  0.4170000000000003    0.3710000000000000    0.8530000000000000 # O18
  0.0830000000000002    0.1290000000000001    0.6470000000000002 # O19
  0.5830000000000003    0.6290000000000001    0.1470000000000001 # O20
  0.3529999999999999    0.9170000000000005    0.8710000000000001 # O21
  0.8530000000000000    0.4170000000000003    0.3710000000000000 # O22
  0.6470000000000002    0.0830000000000002    0.1290000000000001 # O23
  0.1470000000000001    0.5830000000000003    0.6290000000000001 # O24
  0.0830000000000002    0.3710000000000000    0.1470000000000001 # O25
  0.5830000000000003    0.8710000000000001    0.6470000000000002 # O26
  0.9170000000000000    0.6290000000000001    0.8530000000000000 # O27
  0.4169999999999998    0.1290000000000001    0.3529999999999999 # O28
  0.5830000000000003    0.1290000000000001    0.8530000000000000 # O29
  0.0830000000000002    0.6290000000000001    0.3529999999999999 # O30
  0.4170000000000003    0.8710000000000001    0.1470000000000001 # O31
  0.9170000000000000    0.3710000000000000    0.6470000000000002 # O32
  0.1470000000000001    0.0830000000000002    0.3710000000000000 # O33
  0.6470000000000002    0.5830000000000003    0.8710000000000001 # O34
  0.8530000000000000    0.9170000000000000    0.6290000000000001 # O35
  0.3529999999999999    0.4169999999999998    0.1290000000000001 # O36
  0.8710000000000001    0.3529999999999999    0.9170000000000000 # O37
  0.3710000000000000    0.8530000000000000    0.4169999999999998 # O38
  0.1290000000000001    0.6470000000000002    0.0830000000000002 # O39
  0.6290000000000001    0.1470000000000001    0.5830000000000003 # O40
  0.1290000000000001    0.8530000000000000    0.5830000000000003 # O41
  0.6290000000000001    0.3529999999999999    0.0830000000000002 # O42
  0.8710000000000001    0.1470000000000001    0.4169999999999998 # O43
  0.3710000000000000    0.6470000000000002    0.9170000000000000 # O44
  0.3710000000000000    0.1470000000000001    0.0830000000000002 # O45
  0.8710000000000001    0.6470000000000002    0.5830000000000003 # O46
  0.6290000000000001    0.8530000000000000    0.9170000000000000 # O47
  0.1290000000000001    0.3529999999999999    0.4169999999999998 # O48
