$cell vectors
1.0
 15.7049926101414830    0.0000000000000000    0.0000000000000000
  0.0000000000000000   15.7049926101414830    0.0000000000000000
  0.0000000000000000    0.0000000000000000   15.7049926101414830
 32 192
Direct
  0.0000000000000000    0.0000000000000000    0.0000000000000000 # Te1
  0.0000000000000000    0.5000000000000002    0.5000000000000002 # Te2
  0.5000000000000002    0.0000000000000000    0.5000000000000002 # Te3
  0.5000000000000002    0.5000000000000002    0.0000000000000000 # Te4
  0.5000000000000002    0.2500000000000001    0.2500000000000001 # Te5
  0.2500000000000001    0.2500000000000001    0.0000000000000000 # Te6
  0.2500000000000001    0.7500000000000001    0.5000000000000002 # Te7
  0.7500000000000001    0.2500000000000001    0.5000000000000002 # Te8
  0.7500000000000001    0.7500000000000001    0.0000000000000000 # Te9
  0.2500000000000001    1.0000000000000000    0.7500000000000001 # Te10
  0.2500000000000001    0.5000000000000002    0.2500000000000001 # Te11
  0.7500000000000004    1.0000000000000000    0.2500000000000001 # Te12
  0.7500000000000001    0.5000000000000002    0.7500000000000001 # Te13
  0.0000000000000000    0.2500000000000001    0.2500000000000001 # Te14
  0.0000000000000000    0.7500000000000004    0.7500000000000001 # Te15
  0.5000000000000002    0.2500000000000001    0.7500000000000001 # Te16
  0.5000000000000002    0.7500000000000001    0.2500000000000001 # Te17
  0.2500000000000001    0.7500000000000001    0.0000000000000000 # Te18
  0.2500000000000001    0.2500000000000001    0.5000000000000002 # Te19
  0.7500000000000001    0.7500000000000001    0.5000000000000002 # Te20
  0.7500000000000001    0.2500000000000001    0.0000000000000000 # Te21
  0.2500000000000001    0.0000000000000000    0.2500000000000001 # Te22
  0.2500000000000001    0.5000000000000002    0.7500000000000001 # Te23
  0.7500000000000001    0.0000000000000000    0.7500000000000001 # Te24
  0.7500000000000001    0.5000000000000002    0.2500000000000001 # Te25
  0.0000000000000000    0.5000000000000002    0.0000000000000000 # Te26
  0.5000000000000002    0.7500000000000004    0.7500000000000001 # Te27
  0.0000000000000000    0.7500000000000001    0.2500000000000001 # Te28
  0.0000000000000000    0.2500000000000001    0.7500000000000001 # Te29
  0.5000000000000002    0.5000000000000002    0.5000000000000002 # Te30
  0.0000000000000000    1.0000000000000000    0.5000000000000002 # Te31
  0.5000000000000002    1.0000000000000000    0.0000000000000000 # Te32
  0.1402000000000002    0.5425000000000003    0.2809000000000001 # O1
  0.1402000000000002    1.0425000000000002    0.7809000000000001 # O2
  0.6402000000000001    0.5425000000000003    0.7809000000000001 # O3
  0.6402000000000001    1.0425000000000002    0.2809000000000001 # O4
  0.8598000000000000    0.4575000000000002    0.7191000000000004 # O5
  0.8598000000000003    0.9575000000000001    0.2191000000000001 # O6
  0.3598000000000001    0.4575000000000002    0.2191000000000001 # O7
  0.3598000000000001    0.9575000000000006    0.7191000000000004 # O8
  0.4575000000000002    0.3901999999999999    0.0309000000000001 # O9
  0.4575000000000002   -0.1097999999999999    0.5308999999999999 # O10
 -0.0425000000000000    0.3901999999999999    0.5308999999999999 # O11
 -0.0425000000000000   -0.1097999999999999    0.0309000000000001 # O12
  0.5425000000000003    0.6098000000000001   -0.0309000000000001 # O13
  0.5425000000000003    0.1097999999999999    0.4691000000000002 # O14
  0.0425000000000000    0.6098000000000001    0.4691000000000002 # O15
  0.0425000000000000    0.1097999999999999   -0.0309000000000001 # O16
  0.1097999999999999    0.7075000000000000    0.2809000000000001 # O17
  0.1097999999999999    0.2075000000000001    0.7809000000000001 # O18
  0.6098000000000001    0.7075000000000000    0.7809000000000001 # O19
  0.6098000000000001    0.2075000000000001    0.2809000000000001 # O20
 -0.1097999999999999    0.2925000000000001    0.7191000000000004 # O21
 -0.1097999999999999    0.7925000000000001    0.2191000000000001 # O22
  0.3901999999999999    0.2925000000000001    0.2191000000000001 # O23
  0.3902000000000003    0.7925000000000004    0.7191000000000004 # O24
  0.7925000000000001    0.8598000000000000    0.0309000000000001 # O25
  0.7925000000000001    0.3598000000000001    0.5308999999999999 # O26
  0.2925000000000001    0.8598000000000003    0.5308999999999999 # O27
  0.2925000000000001    0.3598000000000001    0.0309000000000001 # O28
  0.2075000000000001    0.1401999999999999   -0.0309000000000001 # O29
  0.2075000000000001    0.6402000000000001    0.4691000000000002 # O30
  0.7075000000000000    0.1402000000000002    0.4691000000000002 # O31
  0.7075000000000000    0.6402000000000001   -0.0309000000000001 # O32
  0.3901999999999999    0.7191000000000004    0.2925000000000001 # O33
  0.3901999999999999    0.2191000000000001    0.7925000000000001 # O34
 -0.1097999999999999    0.7191000000000004    0.7925000000000001 # O35
 -0.1097999999999999    0.2191000000000001    0.2925000000000001 # O36
  0.6098000000000001    0.2809000000000001    0.7075000000000000 # O37
  0.6098000000000001    0.7809000000000001    0.2075000000000001 # O38
  0.1097999999999999    0.2809000000000001    0.2075000000000001 # O39
  0.1098000000000003    0.7809000000000001    0.7075000000000000 # O40
  0.1402000000000002    0.7075000000000000   -0.0309000000000001 # O41
  0.1402000000000002    0.2075000000000001    0.4691000000000002 # O42
  0.6402000000000001    0.7075000000000000    0.4691000000000002 # O43
  0.6402000000000001    0.2075000000000001   -0.0309000000000001 # O44
  0.8598000000000000    0.2925000000000001    0.0309000000000001 # O45
  0.8598000000000000    0.7925000000000004    0.5308999999999999 # O46
  0.3598000000000001    0.2925000000000001    0.5308999999999999 # O47
  0.3598000000000001    0.7925000000000001    0.0309000000000001 # O48
  0.3901999999999999    0.0309000000000001    0.4575000000000002 # O49
  0.3901999999999999    0.5308999999999999   -0.0425000000000000 # O50
 -0.1097999999999999    0.0309000000000001   -0.0425000000000000 # O51
 -0.1097999999999999    0.5308999999999999    0.4575000000000002 # O52
  0.6098000000000001   -0.0309000000000001    0.5425000000000003 # O53
  0.6098000000000001    0.4691000000000002    0.0425000000000000 # O54
  0.1097999999999999   -0.0309000000000001    0.0425000000000000 # O55
  0.1097999999999999    0.4691000000000002    0.5425000000000003 # O56
  0.5308999999999999    0.2925000000000001    0.8598000000000000 # O57
  0.5308999999999999    0.7925000000000001    0.3598000000000001 # O58
  0.0309000000000001    0.2925000000000001    0.3598000000000001 # O59
  0.0309000000000001    0.7925000000000004    0.8598000000000000 # O60
  0.4691000000000002    0.7075000000000000    0.1401999999999999 # O61
  0.4691000000000002    0.2075000000000001    0.6402000000000001 # O62
 -0.0309000000000001    0.7075000000000000    0.6402000000000001 # O63
 -0.0309000000000001    0.2075000000000001    0.1401999999999999 # O64
  0.1097999999999999    0.5425000000000003   -0.0309000000000001 # O65
  0.1098000000000003    1.0425000000000002    0.4691000000000002 # O66
  0.6098000000000001    0.5425000000000003    0.4691000000000002 # O67
  0.6098000000000001    1.0425000000000002   -0.0309000000000001 # O68
 -0.1097999999999999    0.4575000000000002    0.0309000000000001 # O69
 -0.1097999999999999    0.9575000000000006    0.5308999999999999 # O70
  0.3901999999999999    0.4575000000000002    0.5308999999999999 # O71
  0.3901999999999999    0.9575000000000001    0.0309000000000001 # O72
  0.7191000000000004    0.7925000000000001   -0.1097999999999999 # O73
  0.7191000000000004    0.2925000000000001    0.3901999999999999 # O74
  0.2191000000000001    0.7925000000000001    0.3901999999999999 # O75
  0.2191000000000001    0.2925000000000001   -0.1097999999999999 # O76
  0.2809000000000001    0.2075000000000001    0.1097999999999999 # O77
  0.2809000000000001    0.7075000000000000    0.6098000000000001 # O78
  0.7809000000000001    0.2075000000000001    0.6098000000000001 # O79
  0.7809000000000001    0.7075000000000000    0.1097999999999999 # O80
  0.2809000000000001    0.1402000000000002    0.5425000000000003 # O81
  0.2809000000000001    0.6402000000000001    0.0425000000000000 # O82
  0.7809000000000001    0.1401999999999999    0.0425000000000000 # O83
  0.7809000000000001    0.6402000000000001    0.5425000000000003 # O84
  0.7191000000000004    0.8598000000000000    0.4575000000000002 # O85
  0.7191000000000004    0.3598000000000001   -0.0425000000000000 # O86
  0.2191000000000001    0.8598000000000000   -0.0425000000000000 # O87
  0.2191000000000001    0.3598000000000001    0.4575000000000002 # O88
  0.5425000000000003    0.2809000000000001    0.1401999999999999 # O89
  0.5425000000000003    0.7809000000000001    0.6402000000000001 # O90
  0.0425000000000000    0.2809000000000001    0.6402000000000001 # O91
  0.0425000000000000    0.7809000000000001    0.1401999999999999 # O92
  0.4575000000000002    0.7191000000000004    0.8598000000000000 # O93
  0.4575000000000002    0.2191000000000001    0.3598000000000001 # O94
 -0.0425000000000000    0.7191000000000004    0.3598000000000001 # O95
 -0.0425000000000000    0.2191000000000001    0.8598000000000000 # O96
  0.7075000000000000    0.9691000000000004    0.1401999999999999 # O97
  0.7075000000000000    0.4691000000000002    0.6402000000000001 # O98
  0.2075000000000001    0.9691000000000004    0.6402000000000001 # O99
  0.2075000000000001    0.4691000000000002    0.1401999999999999 # O100
  0.2925000000000001    1.0309000000000004    0.8598000000000000 # O101
  0.2925000000000001    0.5308999999999999    0.3598000000000001 # O102
  0.7925000000000004    1.0309000000000004    0.3598000000000001 # O103
  0.7925000000000001    0.5309000000000003    0.8598000000000000 # O104
  0.2809000000000001    1.1098000000000001    0.7075000000000000 # O105
  0.2809000000000001    0.6098000000000001    0.2075000000000001 # O106
  0.7809000000000001    1.1098000000000001    0.2075000000000001 # O107
  0.7809000000000001    0.6098000000000001    0.7075000000000000 # O108
  0.7191000000000004    0.8902000000000002    0.2925000000000001 # O109
  0.7191000000000004    0.3902000000000003    0.7925000000000001 # O110
  0.2191000000000001    0.8902000000000002    0.7925000000000001 # O111
  0.2191000000000001    0.3901999999999999    0.2925000000000001 # O112
  0.7075000000000000    0.2809000000000001    0.1097999999999999 # O113
  0.7075000000000000    0.7809000000000001    0.6098000000000001 # O114
  0.2075000000000001    0.2809000000000001    0.6098000000000001 # O115
  0.2075000000000001    0.7809000000000001    0.1097999999999999 # O116
  0.2925000000000001    0.7191000000000004   -0.1097999999999999 # O117
  0.2925000000000001    0.2191000000000001    0.3901999999999999 # O118
  0.7925000000000001    0.7191000000000004    0.3901999999999999 # O119
  0.7925000000000001    0.2191000000000001   -0.1097999999999999 # O120
 -0.0309000000000001    1.1098000000000001    0.5425000000000003 # O121
 -0.0309000000000001    0.6098000000000001    0.0425000000000000 # O122
  0.4691000000000002    1.1098000000000001    0.0425000000000000 # O123
  0.4691000000000002    0.6098000000000001    0.5425000000000003 # O124
  0.0309000000000001    0.8902000000000002    0.4575000000000002 # O125
  0.0309000000000001    0.3901999999999999   -0.0425000000000000 # O126
  0.5308999999999999    0.8902000000000002   -0.0425000000000000 # O127
  0.5308999999999999    0.3901999999999999    0.4575000000000002 # O128
 -0.0309000000000001    0.1402000000000002    0.7075000000000000 # O129
 -0.0309000000000001    0.6402000000000001    0.2075000000000001 # O130
  0.4691000000000002    0.1402000000000002    0.2075000000000001 # O131
  0.4691000000000002    0.6402000000000001    0.7075000000000000 # O132
  0.0309000000000001    0.8598000000000000    0.2925000000000001 # O133
  0.0309000000000001    0.3598000000000001    0.7925000000000001 # O134
  0.5308999999999999    0.8598000000000003    0.7925000000000001 # O135
  0.5308999999999999    0.3598000000000001    0.2925000000000001 # O136
  0.5425000000000003    0.9691000000000004    0.1097999999999999 # O137
  0.5425000000000003    0.4691000000000002    0.6098000000000001 # O138
  0.0425000000000000    0.9691000000000004    0.6098000000000001 # O139
  0.0425000000000000    0.4691000000000002    0.1097999999999999 # O140
  0.4575000000000002    1.0309000000000004   -0.1097999999999999 # O141
  0.4575000000000002    0.5308999999999999    0.3901999999999999 # O142
 -0.0425000000000000    1.0309000000000004    0.3901999999999999 # O143
 -0.0425000000000000    0.5308999999999999   -0.1097999999999999 # O144
  0.7925000000000001   -0.1097999999999999    0.7191000000000004 # O145
  0.7925000000000001    0.3901999999999999    0.2191000000000001 # O146
  0.2925000000000001   -0.1097999999999999    0.2191000000000001 # O147
  0.2925000000000001    0.3901999999999999    0.7191000000000004 # O148
  0.2075000000000001    0.1097999999999999    0.2809000000000001 # O149
  0.2075000000000001    0.6098000000000001    0.7809000000000001 # O150
  0.7075000000000000    0.1098000000000003    0.7809000000000001 # O151
  0.7075000000000000    0.6098000000000001    0.2809000000000001 # O152
  0.4575000000000002    0.8598000000000000    0.2191000000000001 # O153
  0.4575000000000002    0.3598000000000001    0.7191000000000004 # O154
 -0.0425000000000000    0.8598000000000003    0.7191000000000004 # O155
 -0.0425000000000000    0.3598000000000001    0.2191000000000001 # O156
  0.5425000000000003    0.1402000000000002    0.7809000000000001 # O157
  0.5425000000000003    0.6402000000000001    0.2809000000000001 # O158
  0.0425000000000000    0.1402000000000002    0.2809000000000001 # O159
  0.0425000000000000    0.6402000000000001    0.7809000000000001 # O160
  0.8598000000000000    0.5308999999999999    0.2925000000000001 # O161
  0.8598000000000000    0.0309000000000001    0.7925000000000001 # O162
  0.3598000000000001    0.5309000000000003    0.7925000000000001 # O163
  0.3598000000000001    0.0309000000000001    0.2925000000000001 # O164
  0.1402000000000002    0.4691000000000002    0.7075000000000000 # O165
  0.1401999999999999   -0.0309000000000001    0.2075000000000001 # O166
  0.6402000000000001    0.4691000000000002    0.2075000000000001 # O167
  0.6402000000000001   -0.0309000000000001    0.7075000000000000 # O168
  0.8598000000000000    0.7191000000000004   -0.0425000000000000 # O169
  0.8598000000000000    0.2191000000000001    0.4575000000000002 # O170
  0.3598000000000001    0.7191000000000004    0.4575000000000002 # O171
  0.3598000000000001    0.2191000000000001   -0.0425000000000000 # O172
  0.1402000000000002    0.2809000000000001    0.0425000000000000 # O173
  0.1402000000000002    0.7809000000000001    0.5425000000000003 # O174
  0.6402000000000001    0.2809000000000001    0.5425000000000003 # O175
  0.6402000000000001    0.7809000000000001    0.0425000000000000 # O176
  0.5308999999999999    0.4575000000000002   -0.1097999999999999 # O177
  0.5308999999999999   -0.0425000000000000    0.3901999999999999 # O178
  0.0309000000000001    0.4575000000000002    0.3901999999999999 # O179
  0.0309000000000001   -0.0425000000000000   -0.1097999999999999 # O180
  0.4691000000000002    0.5425000000000003    0.1097999999999999 # O181
  0.4691000000000002    0.0425000000000000    0.6098000000000001 # O182
 -0.0309000000000001    0.5425000000000003    0.6098000000000001 # O183
 -0.0309000000000001    0.0425000000000000    0.1097999999999999 # O184
  0.7191000000000004    0.4575000000000002    0.3598000000000001 # O185
  0.7191000000000004   -0.0425000000000000    0.8598000000000000 # O186
  0.2191000000000001    0.4575000000000002    0.8598000000000000 # O187
  0.2191000000000001   -0.0425000000000000    0.3598000000000001 # O188
  0.2809000000000001    0.5425000000000003    0.6402000000000001 # O189
  0.2809000000000001    0.0425000000000000    0.1401999999999999 # O190
  0.7809000000000001    0.5425000000000003    0.1401999999999999 # O191
  0.7809000000000001    0.0425000000000000    0.6402000000000001 # O192
