$cell vectors
1.0
 11.0299948099242631    0.0000000000000000    0.0000000000000000
  0.0000000000000000   11.0299948099242631    0.0000000000000000
  0.0000000000000000    0.0000000000000000   11.0299948099242631
 32 48
Direct
  0.2500000000000000    0.2500000000000000    0.2500000000000000 # Am1
  0.9700000000000002    0.0000000000000000    0.2500000000000000 # Am2
  0.7500000000000000    0.7500000000000000    0.7500000000000000 # Am3
  0.4700000000000003    0.5000000000000000    0.7500000000000000 # Am4
  0.0300000000000002    0.0000000000000000    0.7500000000000000 # Am5
  0.5300000000000001    0.5000000000000000    0.2500000000000000 # Am6
  0.2500000000000000    0.9700000000000002    0.0000000000000000 # Am7
  0.7500000000000000    0.4700000000000003    0.5000000000000000 # Am8
  0.7500000000000000    0.0300000000000002    0.0000000000000000 # Am9
  0.2500000000000000    0.5300000000000001    0.5000000000000000 # Am10
  0.0000000000000000    0.2500000000000000    0.9700000000000002 # Am11
  0.5000000000000000    0.7500000000000000    0.4699999999999997 # Am12
  0.0000000000000000    0.7500000000000000    0.0300000000000002 # Am13
  0.5000000000000000    0.2500000000000000    0.5300000000000001 # Am14
  0.7500000000000000    0.2500000000000000    0.2500000000000000 # Am15
  0.2500000000000000    0.7500000000000000    0.7500000000000000 # Am16
  0.2500000000000000    0.7500000000000000    0.2500000000000000 # Am17
  0.2500000000000000    0.0300000000000002    0.5000000000000000 # Am18
  0.7500000000000000    0.2500000000000000    0.7500000000000000 # Am19
  0.7500000000000000    0.5300000000000001    0.0000000000000000 # Am20
  0.7500000000000000    0.9700000000000002    0.5000000000000000 # Am21
  0.2500000000000000    0.4699999999999997    0.0000000000000000 # Am22
  0.2500000000000000    0.2500000000000000    0.7500000000000000 # Am23
  0.5000000000000000    0.2500000000000000    0.0300000000000002 # Am24
  0.7500000000000000    0.7500000000000000    0.2500000000000000 # Am25
  0.0000000000000000    0.7500000000000000    0.5300000000000001 # Am26
  0.5000000000000004    0.7500000000000000    0.9700000000000002 # Am27
  0.0000000000000000    0.2500000000000000    0.4699999999999997 # Am28
  0.0300000000000002    0.5000000000000000    0.2500000000000000 # Am29
  0.5300000000000001    0.0000000000000000    0.7500000000000000 # Am30
  0.9700000000000002    0.5000000000000000    0.7500000000000000 # Am31
  0.4699999999999997    0.0000000000000000    0.2500000000000000 # Am32
  0.3850000000000003    0.1450000000000000    0.3800000000000001 # O1
  0.8850000000000003    0.6449999999999999    0.8800000000000000 # O2
  0.6150000000000002    0.8550000000000000    0.6199999999999999 # O3
  0.1150000000000002    0.3550000000000000    0.1199999999999999 # O4
  0.3800000000000001    0.3850000000000003    0.1450000000000000 # O5
  0.8800000000000000    0.8850000000000003    0.6449999999999999 # O6
  0.6200000000000003    0.6150000000000002    0.8550000000000000 # O7
  0.1199999999999999    0.1150000000000002    0.3550000000000000 # O8
  0.1450000000000000    0.3800000000000001    0.3850000000000003 # O9
  0.6450000000000005    0.8800000000000006    0.8850000000000003 # O10
  0.8550000000000000    0.6200000000000003    0.6150000000000002 # O11
  0.3550000000000000    0.1199999999999999    0.1149999999999998 # O12
  0.8550000000000000    0.1199999999999999    0.3850000000000003 # O13
  0.3550000000000000    0.6200000000000003    0.8850000000000003 # O14
  0.1450000000000000    0.8800000000000000    0.6150000000000002 # O15
  0.6449999999999999    0.3800000000000001    0.1149999999999998 # O16
  0.3800000000000001    0.6150000000000002    0.3550000000000000 # O17
  0.8800000000000000    0.1150000000000002    0.8550000000000000 # O18
  0.6199999999999999    0.3850000000000003    0.6449999999999999 # O19
  0.1199999999999999    0.8850000000000003    0.1450000000000000 # O20
  0.3550000000000000    0.3800000000000001    0.6150000000000002 # O21
  0.8550000000000000    0.8800000000000000    0.1149999999999998 # O22
  0.6449999999999999    0.6200000000000003    0.3850000000000003 # O23
  0.1450000000000000    0.1199999999999999    0.8850000000000003 # O24
  0.6199999999999999    0.1150000000000002    0.1450000000000000 # O25
  0.1199999999999999    0.6150000000000002    0.6449999999999999 # O26
  0.3800000000000001    0.8850000000000003    0.8550000000000000 # O27
  0.8800000000000000    0.3850000000000003    0.3550000000000000 # O28
  0.1199999999999999    0.3850000000000003    0.8550000000000000 # O29
  0.6200000000000003    0.8850000000000003    0.3550000000000000 # O30
  0.8800000000000000    0.6150000000000002    0.1450000000000000 # O31
  0.3800000000000001    0.1150000000000002    0.6449999999999999 # O32
  0.1450000000000000    0.6199999999999999    0.1149999999999998 # O33
  0.6449999999999999    0.1199999999999999    0.6150000000000002 # O34
  0.8550000000000000    0.3800000000000001    0.8850000000000003 # O35
  0.3550000000000000    0.8800000000000000    0.3850000000000003 # O36
  0.6150000000000002    0.3550000000000000    0.3800000000000001 # O37
  0.1150000000000002    0.8550000000000004    0.8800000000000000 # O38
  0.3850000000000003    0.6449999999999999    0.6199999999999999 # O39
  0.8850000000000003    0.1450000000000000    0.1199999999999999 # O40
  0.3850000000000003    0.8550000000000000    0.1199999999999999 # O41
  0.8850000000000003    0.3550000000000000    0.6199999999999999 # O42
  0.6150000000000002    0.1450000000000000    0.8800000000000000 # O43
  0.1150000000000002    0.6449999999999999    0.3800000000000001 # O44
  0.1150000000000002    0.1450000000000000    0.6199999999999999 # O45
  0.6150000000000002    0.6449999999999999    0.1199999999999999 # O46
  0.8850000000000003    0.8550000000000000    0.3800000000000001 # O47
  0.3850000000000003    0.3550000000000000    0.8800000000000000 # O48
