$cell vectors
1.0
 23.2549890575511107    0.0000000000000000    0.0000000000000000
  0.0000000000000000   23.2549890575511107    0.0000000000000000
  0.0000000000000000    0.0000000000000000   23.2549890575511107
 96 8 368
Direct
  0.0168000000000000    0.0168000000000000    0.1295000000000000 # Mo1
  0.0168000000000000    0.5168000000000001    0.6295000000000001 # Mo2
  0.5168000000000001    0.0168000000000000    0.6295000000000001 # Mo3
  0.5168000000000001    0.5168000000000001    0.1295000000000000 # Mo4
  0.9832000000000002    0.9832000000000003    0.8705000000000001 # Mo5
  0.9832000000000002    0.4832000000000001    0.3705000000000001 # Mo6
  0.4832000000000001    0.9832000000000002    0.3705000000000001 # Mo7
  0.4832000000000001    0.4832000000000001    0.8705000000000001 # Mo8
  0.9832000000000002    0.2668000000000000    0.3795000000000002 # Mo9
  0.9832000000000002    0.7668000000000004    0.8795000000000001 # Mo10
  0.4832000000000001    0.2668000000000001    0.8795000000000001 # Mo11
  0.4832000000000001    0.7668000000000004    0.3795000000000002 # Mo12
  0.0168000000000000    0.7332000000000001    0.6205000000000002 # Mo13
  0.0168000000000000    0.2332000000000001    0.1204999999999999 # Mo14
  0.5168000000000001    0.7332000000000001    0.1204999999999999 # Mo15
  0.5168000000000001    0.2332000000000001    0.6205000000000002 # Mo16
  0.2332000000000001    0.2332000000000001    0.1295000000000000 # Mo17
  0.2332000000000001    0.7332000000000001    0.6295000000000001 # Mo18
  0.7332000000000001    0.2332000000000001    0.6295000000000001 # Mo19
  0.7332000000000001    0.7332000000000001    0.1295000000000000 # Mo20
  0.7668000000000004    0.7668000000000004    0.8705000000000001 # Mo21
  0.7668000000000004    0.2668000000000000    0.3705000000000001 # Mo22
  0.2668000000000001    0.7668000000000004    0.3705000000000001 # Mo23
  0.2668000000000000    0.2668000000000001    0.8705000000000001 # Mo24
  0.2668000000000001    0.9832000000000002    0.3795000000000002 # Mo25
  0.2668000000000001    0.4832000000000001    0.8795000000000001 # Mo26
  0.7668000000000004    0.9832000000000003    0.8795000000000001 # Mo27
  0.7668000000000004    0.4832000000000001    0.3795000000000002 # Mo28
  0.7332000000000001    0.0168000000000000    0.6205000000000002 # Mo29
  0.7332000000000001    0.5168000000000001    0.1204999999999999 # Mo30
  0.2332000000000001    0.0168000000000000    0.1204999999999999 # Mo31
  0.2332000000000001    0.5168000000000001    0.6205000000000002 # Mo32
  0.2668000000000000    0.8705000000000001    0.2668000000000000 # Mo33
  0.2668000000000001    0.3705000000000001    0.7668000000000004 # Mo34
  0.7668000000000004    0.8705000000000005    0.7668000000000004 # Mo35
  0.7668000000000004    0.3705000000000001    0.2668000000000000 # Mo36
  0.7332000000000001    0.1295000000000000    0.7332000000000001 # Mo37
  0.7332000000000001    0.6295000000000001    0.2332000000000001 # Mo38
  0.2332000000000001    0.1295000000000000    0.2332000000000001 # Mo39
  0.2332000000000001    0.6295000000000001    0.7332000000000001 # Mo40
  0.2668000000000001    0.3795000000000002    0.9832000000000002 # Mo41
  0.2668000000000001    0.8795000000000001    0.4832000000000001 # Mo42
  0.7668000000000004    0.3795000000000002    0.4832000000000001 # Mo43
  0.7668000000000004    0.8795000000000001    0.9832000000000002 # Mo44
  0.7332000000000001    0.6205000000000002    0.0168000000000000 # Mo45
  0.7332000000000001    0.1205000000000001    0.5168000000000001 # Mo46
  0.2332000000000001    0.6205000000000002    0.5168000000000001 # Mo47
  0.2332000000000001    0.1204999999999999    0.0168000000000000 # Mo48
  0.3795000000000002    0.2668000000000001    0.9832000000000002 # Mo49
  0.3795000000000002    0.7668000000000004    0.4832000000000001 # Mo50
  0.8795000000000001    0.2668000000000000    0.4832000000000001 # Mo51
  0.8795000000000001    0.7668000000000004    0.9832000000000002 # Mo52
  0.6205000000000002    0.7332000000000001    0.0168000000000000 # Mo53
  0.6205000000000002    0.2332000000000001    0.5168000000000001 # Mo54
  0.1205000000000001    0.7332000000000001    0.5168000000000001 # Mo55
  0.1205000000000001    0.2332000000000001    0.0168000000000000 # Mo56
  0.8705000000000001    0.2668000000000000    0.2668000000000000 # Mo57
  0.8705000000000001    0.7668000000000004    0.7668000000000004 # Mo58
  0.3705000000000001    0.2668000000000001    0.7668000000000004 # Mo59
  0.3705000000000001    0.7668000000000004    0.2668000000000000 # Mo60
  0.1295000000000000    0.7332000000000003    0.7332000000000001 # Mo61
  0.1295000000000000    0.2332000000000001    0.2332000000000001 # Mo62
  0.6295000000000001    0.7332000000000001    0.2332000000000001 # Mo63
  0.6295000000000001    0.2332000000000001    0.7332000000000001 # Mo64
  0.1295000000000000    0.0168000000000000    0.0168000000000000 # Mo65
  0.1295000000000000    0.5168000000000001    0.5168000000000004 # Mo66
  0.6295000000000001    0.0168000000000000    0.5168000000000004 # Mo67
  0.6295000000000001    0.5168000000000001    0.0168000000000000 # Mo68
  0.8705000000000001    0.9832000000000003    0.9832000000000002 # Mo69
  0.8705000000000001    0.4832000000000001    0.4832000000000001 # Mo70
  0.3705000000000001    0.9832000000000002    0.4832000000000001 # Mo71
  0.3705000000000001    0.4832000000000001    0.9832000000000002 # Mo72
  0.0168000000000000    0.1295000000000000    0.0168000000000000 # Mo73
  0.0168000000000000    0.6295000000000001    0.5168000000000004 # Mo74
  0.5168000000000001    0.1295000000000000    0.5168000000000004 # Mo75
  0.5168000000000001    0.6295000000000001    0.0168000000000000 # Mo76
  0.9832000000000002    0.8705000000000005    0.9832000000000002 # Mo77
  0.9832000000000002    0.3705000000000001    0.4832000000000001 # Mo78
  0.4832000000000001    0.8705000000000001    0.4832000000000001 # Mo79
  0.4832000000000001    0.3705000000000001    0.9832000000000002 # Mo80
  0.1205000000000001    0.0168000000000000    0.2332000000000001 # Mo81
  0.1205000000000001    0.5168000000000001    0.7332000000000001 # Mo82
  0.6205000000000002    0.0168000000000000    0.7332000000000001 # Mo83
  0.6205000000000002    0.5168000000000001    0.2332000000000001 # Mo84
  0.8795000000000001    0.9832000000000003    0.7668000000000004 # Mo85
  0.8795000000000001    0.4832000000000001    0.2668000000000000 # Mo86
  0.3795000000000002    0.9832000000000002    0.2668000000000000 # Mo87
  0.3795000000000002    0.4832000000000001    0.7668000000000004 # Mo88
  0.0168000000000000    0.1205000000000001    0.2332000000000001 # Mo89
  0.0168000000000000    0.6205000000000002    0.7332000000000001 # Mo90
  0.5168000000000001    0.1205000000000001    0.7332000000000001 # Mo91
  0.5168000000000001    0.6205000000000002    0.2332000000000001 # Mo92
  0.9832000000000002    0.8795000000000001    0.7668000000000004 # Mo93
  0.9832000000000002    0.3795000000000002    0.2668000000000000 # Mo94
  0.4832000000000001    0.8795000000000001    0.2668000000000000 # Mo95
  0.4832000000000001    0.3795000000000002    0.7668000000000004 # Mo96
  0.1250000000000001    0.1250000000000001    0.1250000000000001 # P1
  0.1250000000000001    0.6250000000000001    0.6250000000000001 # P2
  0.6250000000000001    0.1250000000000001    0.6250000000000001 # P3
  0.6250000000000001    0.6250000000000001    0.1250000000000001 # P4
  0.8750000000000000    0.8750000000000003    0.8750000000000000 # P5
  0.8750000000000000    0.3750000000000003    0.3750000000000001 # P6
  0.3750000000000003    0.8750000000000000    0.3750000000000001 # P7
  0.3750000000000003    0.3750000000000003    0.8750000000000000 # P8
  0.1738000000000001    0.1738000000000001   -0.0020000000000001 # O1
  0.0617000000000001    0.0617000000000001    0.2691000000000000 # O2
  0.2843000000000000    0.2843000000000000    0.1180000000000001 # O3
  0.1622000000000001    0.1622000000000001    0.1622000000000000 # O4
  0.1250000000000001    0.1250000000000001    0.8750000000000000 # O5
  0.1738000000000001    0.6738000000000002    0.4979999999999999 # O6
  0.0617000000000001    0.5617000000000002    0.7691000000000002 # O7
  0.2843000000000002    0.7843000000000000    0.6180000000000001 # O8
  0.1622000000000001    0.6622000000000002    0.6622000000000000 # O9
  0.1250000000000001    0.6250000000000001    0.3750000000000001 # O10
  0.6738000000000000    0.1738000000000001    0.4979999999999999 # O11
  0.5617000000000002    0.0617000000000001    0.7691000000000002 # O12
  0.7843000000000000    0.2843000000000002    0.6180000000000001 # O13
  0.6622000000000002    0.1622000000000001    0.6622000000000000 # O14
  0.6250000000000001    0.1250000000000001    0.3750000000000001 # O15
  0.6738000000000002    0.6738000000000000   -0.0020000000000001 # O16
  0.5617000000000002    0.5617000000000002    0.2691000000000000 # O17
  0.7843000000000000    0.7843000000000000    0.1180000000000001 # O18
  0.6622000000000002    0.6622000000000000    0.1622000000000000 # O19
  0.6250000000000003    0.6250000000000001    0.8750000000000000 # O20
  0.8262000000000000    0.8262000000000004    1.0020000000000002 # O21
  0.9383000000000004    0.9383000000000004    0.7309000000000001 # O22
  0.7157000000000001    0.7157000000000003    0.8820000000000001 # O23
  0.8377999999999999    0.8378000000000002    0.8377999999999999 # O24
  0.8750000000000000    0.8750000000000000    0.1250000000000001 # O25
  0.8262000000000000    0.3262000000000002    0.5020000000000002 # O26
  0.9383000000000004    0.4383000000000000    0.2309000000000000 # O27
  0.7157000000000001    0.2157000000000001    0.3820000000000000 # O28
  0.8377999999999999    0.3378000000000002    0.3378000000000002 # O29
  0.8750000000000000    0.3750000000000003    0.6250000000000001 # O30
  0.3262000000000002    0.8262000000000000    0.5020000000000002 # O31
  0.4383000000000002    0.9383000000000004    0.2309000000000000 # O32
  0.2157000000000001    0.7157000000000001    0.3820000000000000 # O33
  0.3378000000000002    0.8377999999999999    0.3378000000000002 # O34
  0.3750000000000003    0.8750000000000000    0.6250000000000001 # O35
  0.3262000000000002    0.3262000000000002    1.0020000000000002 # O36
  0.4383000000000002    0.4383000000000002    0.7309000000000001 # O37
  0.2157000000000001    0.2157000000000001    0.8820000000000001 # O38
  0.3378000000000002    0.3378000000000002    0.8377999999999999 # O39
  0.3750000000000001    0.3750000000000001    0.1250000000000001 # O40
  0.8262000000000000    0.4238000000000001    0.2480000000000001 # O41
  0.9383000000000004    0.3117000000000000    0.5191000000000002 # O42
  0.7157000000000001    0.5343000000000001    0.3680000000000000 # O43
  0.8377999999999999    0.4122000000000001    0.4122000000000001 # O44
  0.8750000000000000    0.3750000000000001    0.1250000000000001 # O45
  0.8262000000000000    0.9238000000000003    0.7480000000000001 # O46
  0.9383000000000004    0.8117000000000003    1.0191000000000001 # O47
  0.7157000000000001    1.0343000000000002    0.8679999999999999 # O48
  0.8377999999999999    0.9122000000000003    0.9122000000000003 # O49
  0.8750000000000000    0.8750000000000000    0.6250000000000001 # O50
  0.3262000000000002    0.4238000000000002    0.7480000000000001 # O51
  0.4383000000000002    0.3117000000000000    1.0191000000000001 # O52
  0.2157000000000001    0.5343000000000001    0.8679999999999999 # O53
  0.3378000000000002    0.4122000000000001    0.9122000000000003 # O54
  0.3750000000000003    0.3750000000000003    0.6250000000000001 # O55
  0.3262000000000002    0.9237999999999998    0.2480000000000001 # O56
  0.4383000000000002    0.8117000000000000    0.5191000000000002 # O57
  0.2157000000000001    1.0343000000000002    0.3680000000000000 # O58
  0.3378000000000002    0.9122000000000003    0.4122000000000001 # O59
  0.3750000000000003    0.8750000000000000    0.1250000000000001 # O60
  0.1738000000000001    0.5762000000000000    0.7520000000000001 # O61
  0.0617000000000001    0.6883000000000001    0.4808999999999999 # O62
  0.2843000000000002    0.4657000000000003    0.6320000000000001 # O63
  0.1622000000000001    0.5878000000000002    0.5878000000000000 # O64
  0.1250000000000001    0.6250000000000001    0.8750000000000000 # O65
  0.1738000000000001    0.0762000000000001    0.2520000000000000 # O66
  0.0617000000000001    0.1883000000000001   -0.0190999999999999 # O67
  0.2843000000000000   -0.0343000000000000    0.1320000000000001 # O68
  0.1622000000000000    0.0878000000000000    0.0878000000000000 # O69
  0.1250000000000001    0.1250000000000001    0.3750000000000001 # O70
  0.6738000000000000    0.5762000000000000    0.2520000000000000 # O71
  0.5617000000000002    0.6883000000000001   -0.0190999999999999 # O72
  0.7843000000000000    0.4657000000000000    0.1320000000000001 # O73
  0.6622000000000000    0.5878000000000000    0.0878000000000000 # O74
  0.6250000000000001    0.6250000000000001    0.3750000000000001 # O75
  0.6738000000000002    0.0762000000000001    0.7520000000000001 # O76
  0.5617000000000002    0.1883000000000001    0.4808999999999999 # O77
  0.7843000000000000   -0.0342999999999998    0.6320000000000001 # O78
  0.6622000000000000    0.0878000000000000    0.5878000000000000 # O79
  0.6250000000000001    0.1250000000000001    0.8750000000000000 # O80
  0.0762000000000001    0.0762000000000001   -0.0020000000000001 # O81
  0.1883000000000001    0.1883000000000001    0.2691000000000000 # O82
 -0.0343000000000000   -0.0343000000000000    0.1180000000000001 # O83
  0.0878000000000000    0.0878000000000000    0.1622000000000000 # O84
  0.0762000000000001    0.5762000000000000    0.4980000000000001 # O85
  0.1883000000000001    0.6883000000000005    0.7691000000000002 # O86
 -0.0343000000000000    0.4657000000000003    0.6180000000000001 # O87
  0.0878000000000000    0.5878000000000002    0.6622000000000000 # O88
  0.5762000000000000    0.0762000000000001    0.4980000000000001 # O89
  0.6883000000000001    0.1883000000000001    0.7691000000000002 # O90
  0.4657000000000000   -0.0343000000000000    0.6180000000000001 # O91
  0.5878000000000002    0.0878000000000000    0.6622000000000000 # O92
  0.5762000000000000    0.5762000000000000   -0.0020000000000001 # O93
  0.6883000000000001    0.6883000000000001    0.2691000000000000 # O94
  0.4657000000000000    0.4657000000000000    0.1180000000000001 # O95
  0.5878000000000000    0.5878000000000000    0.1622000000000000 # O96
  0.9237999999999998    0.9238000000000003    1.0020000000000002 # O97
  0.8117000000000000    0.8117000000000003    0.7309000000000001 # O98
  1.0343000000000002    1.0343000000000002    0.8820000000000001 # O99
  0.9122000000000003    0.9122000000000003    0.8377999999999999 # O100
  0.9237999999999998    0.4238000000000002    0.5020000000000002 # O101
  0.8117000000000000    0.3117000000000000    0.2309000000000000 # O102
  1.0343000000000002    0.5343000000000001    0.3820000000000000 # O103
  0.9122000000000003    0.4122000000000001    0.3378000000000002 # O104
  0.4238000000000002    0.9237999999999998    0.5020000000000002 # O105
  0.3117000000000000    0.8117000000000000    0.2309000000000000 # O106
  0.5343000000000001    1.0343000000000002    0.3820000000000000 # O107
  0.4122000000000001    0.9122000000000003    0.3378000000000002 # O108
  0.4238000000000002    0.4238000000000002    1.0020000000000002 # O109
  0.3117000000000000    0.3117000000000000    0.7309000000000001 # O110
  0.5343000000000001    0.5343000000000001    0.8820000000000001 # O111
  0.4122000000000001    0.4122000000000001    0.8377999999999999 # O112
  0.4238000000000002    0.8262000000000000    0.2480000000000001 # O113
  0.3117000000000000    0.9383000000000004    0.5191000000000002 # O114
  0.5343000000000001    0.7157000000000001    0.3680000000000000 # O115
  0.4122000000000001    0.8377999999999999    0.4122000000000001 # O116
  0.4238000000000002    0.3262000000000002    0.7480000000000001 # O117
  0.3117000000000000    0.4383000000000002    1.0191000000000001 # O118
  0.5343000000000001    0.2157000000000001    0.8679999999999999 # O119
  0.4122000000000001    0.3378000000000002    0.9122000000000003 # O120
  0.9237999999999998    0.8262000000000004    0.7480000000000001 # O121
  0.8117000000000000    0.9383000000000004    1.0191000000000001 # O122
  1.0343000000000002    0.7157000000000003    0.8679999999999999 # O123
  0.9122000000000003    0.8378000000000002    0.9122000000000003 # O124
  0.9237999999999998    0.3262000000000002    0.2480000000000001 # O125
  0.8117000000000000    0.4383000000000002    0.5191000000000002 # O126
  1.0343000000000002    0.2157000000000001    0.3680000000000000 # O127
  0.9122000000000003    0.3378000000000002    0.4122000000000001 # O128
  0.5762000000000000    0.1738000000000001    0.7520000000000001 # O129
  0.6883000000000001    0.0617000000000001    0.4808999999999999 # O130
  0.4657000000000003    0.2843000000000002    0.6320000000000001 # O131
  0.5878000000000000    0.1622000000000001    0.5878000000000000 # O132
  0.5762000000000000    0.6738000000000000    0.2520000000000000 # O133
  0.6883000000000001    0.5617000000000002   -0.0190999999999999 # O134
  0.4657000000000003    0.7843000000000000    0.1320000000000001 # O135
  0.5878000000000002    0.6622000000000000    0.0878000000000000 # O136
  0.0762000000000001    0.1738000000000001    0.2520000000000000 # O137
  0.1883000000000001    0.0617000000000001   -0.0190999999999999 # O138
 -0.0343000000000000    0.2843000000000000    0.1320000000000001 # O139
  0.0878000000000000    0.1622000000000001    0.0878000000000000 # O140
  0.0762000000000001    0.6738000000000002    0.7520000000000001 # O141
  0.1883000000000001    0.5617000000000002    0.4808999999999999 # O142
 -0.0342999999999998    0.7843000000000000    0.6320000000000001 # O143
  0.0878000000000000    0.6622000000000002    0.5878000000000000 # O144
  0.4238000000000002    1.0020000000000002    0.4238000000000001 # O145
  0.3117000000000000    0.7309000000000001    0.3117000000000000 # O146
  0.5343000000000001    0.8820000000000001    0.5343000000000001 # O147
  0.3750000000000001    0.1250000000000001    0.3750000000000001 # O148
  0.4238000000000002    0.5020000000000002    0.9237999999999998 # O149
  0.3117000000000000    0.2309000000000000    0.8117000000000000 # O150
  0.5343000000000001    0.3820000000000003    1.0343000000000002 # O151
  0.3750000000000003    0.6250000000000001    0.8750000000000000 # O152
  0.9237999999999998    1.0020000000000004    0.9237999999999998 # O153
  0.8117000000000000    0.7309000000000001    0.8117000000000000 # O154
  1.0343000000000002    0.8820000000000002    1.0343000000000002 # O155
  0.8750000000000000    0.1250000000000001    0.8750000000000000 # O156
  0.9237999999999998    0.5020000000000002    0.4238000000000001 # O157
  0.8117000000000000    0.2309000000000000    0.3117000000000000 # O158
  1.0343000000000002    0.3820000000000003    0.5343000000000001 # O159
  0.8750000000000000    0.6250000000000001    0.3750000000000001 # O160
  0.5762000000000000   -0.0019999999999999    0.5762000000000000 # O161
  0.6883000000000001    0.2691000000000000    0.6883000000000001 # O162
  0.4657000000000000    0.1180000000000001    0.4657000000000003 # O163
  0.6250000000000003    0.8750000000000000    0.6250000000000001 # O164
  0.5762000000000000    0.4979999999999999    0.0762000000000001 # O165
  0.6883000000000001    0.7691000000000002    0.1883000000000001 # O166
  0.4657000000000000    0.6180000000000001   -0.0343000000000000 # O167
  0.6250000000000001    0.3750000000000001    0.1250000000000001 # O168
  0.0762000000000001   -0.0020000000000001    0.0762000000000001 # O169
  0.1883000000000001    0.2691000000000000    0.1883000000000001 # O170
 -0.0343000000000000    0.1180000000000001   -0.0343000000000000 # O171
  0.1250000000000001    0.8750000000000000    0.1250000000000001 # O172
  0.0762000000000001    0.4980000000000001    0.5762000000000000 # O173
  0.1883000000000001    0.7691000000000003    0.6883000000000001 # O174
 -0.0343000000000000    0.6180000000000001    0.4657000000000003 # O175
  0.1250000000000001    0.3750000000000003    0.6250000000000001 # O176
  0.4238000000000002    0.2480000000000001    0.8262000000000000 # O177
  0.3117000000000000    0.5191000000000002    0.9383000000000004 # O178
  0.5343000000000001    0.3680000000000003    0.7157000000000001 # O179
  0.3750000000000003    0.1250000000000001    0.8750000000000000 # O180
  0.4238000000000002    0.7480000000000001    0.3262000000000000 # O181
  0.3117000000000000    1.0191000000000001    0.4383000000000000 # O182
  0.5343000000000001    0.8679999999999999    0.2157000000000001 # O183
  0.3750000000000003    0.6250000000000001    0.3750000000000001 # O184
  0.9237999999999998    0.2480000000000001    0.3262000000000000 # O185
  0.8117000000000000    0.5191000000000002    0.4383000000000000 # O186
  1.0343000000000002    0.3680000000000000    0.2157000000000001 # O187
  0.8750000000000000    0.1250000000000001    0.3750000000000001 # O188
  0.9237999999999998    0.7480000000000003    0.8262000000000000 # O189
  0.8117000000000000    1.0191000000000003    0.9383000000000004 # O190
  1.0343000000000002    0.8680000000000003    0.7157000000000001 # O191
  0.8750000000000000    0.6250000000000001    0.8750000000000000 # O192
  0.5762000000000000    0.7520000000000001    0.1738000000000001 # O193
  0.6883000000000001    0.4808999999999999    0.0617000000000001 # O194
  0.4657000000000003    0.6320000000000001    0.2843000000000000 # O195
  0.6250000000000001    0.8750000000000000    0.1250000000000001 # O196
  0.5762000000000000    0.2520000000000000    0.6738000000000000 # O197
  0.6883000000000001   -0.0190999999999999    0.5617000000000002 # O198
  0.4657000000000003    0.1320000000000001    0.7843000000000000 # O199
  0.6250000000000001    0.3750000000000003    0.6250000000000001 # O200
  0.0762000000000001    0.7520000000000001    0.6738000000000000 # O201
  0.1883000000000001    0.4809000000000002    0.5617000000000002 # O202
 -0.0342999999999998    0.6320000000000001    0.7843000000000000 # O203
  0.1250000000000001    0.8750000000000000    0.6250000000000001 # O204
  0.0762000000000001    0.2520000000000000    0.1738000000000001 # O205
  0.1883000000000001   -0.0190999999999999    0.0617000000000001 # O206
 -0.0343000000000000    0.1320000000000001    0.2843000000000000 # O207
  0.1250000000000001    0.3750000000000001    0.1250000000000001 # O208
  0.2480000000000001    0.4238000000000002    0.8262000000000000 # O209
  0.5191000000000002    0.3117000000000000    0.9383000000000004 # O210
  0.3680000000000003    0.5343000000000001    0.7157000000000001 # O211
  0.1250000000000001    0.3750000000000003    0.8750000000000000 # O212
  0.2480000000000001    0.9237999999999998    0.3262000000000000 # O213
  0.5191000000000002    0.8117000000000000    0.4383000000000000 # O214
  0.3680000000000003    1.0343000000000002    0.2157000000000001 # O215
  0.1250000000000001    0.8750000000000000    0.3750000000000001 # O216
  0.7480000000000001    0.4238000000000001    0.3262000000000000 # O217
  1.0191000000000001    0.3117000000000000    0.4383000000000000 # O218
  0.8679999999999999    0.5343000000000001    0.2157000000000001 # O219
  0.6250000000000001    0.3750000000000003    0.3750000000000001 # O220
  0.7480000000000001    0.9238000000000003    0.8262000000000000 # O221
  1.0191000000000001    0.8117000000000003    0.9383000000000004 # O222
  0.8679999999999999    1.0343000000000002    0.7157000000000001 # O223
  0.6250000000000003    0.8750000000000003    0.8750000000000000 # O224
  0.7520000000000001    0.5762000000000000    0.1738000000000001 # O225
  0.4809000000000002    0.6883000000000001    0.0617000000000001 # O226
  0.6320000000000001    0.4657000000000000    0.2843000000000000 # O227
  0.8750000000000000    0.6250000000000001    0.1250000000000001 # O228
  0.7520000000000001    0.0762000000000001    0.6738000000000000 # O229
  0.4808999999999999    0.1883000000000001    0.5617000000000002 # O230
  0.6320000000000001   -0.0342999999999998    0.7843000000000000 # O231
  0.8750000000000000    0.1250000000000001    0.6250000000000001 # O232
  0.2520000000000000    0.5762000000000000    0.6738000000000000 # O233
 -0.0190999999999999    0.6883000000000001    0.5617000000000002 # O234
  0.1320000000000001    0.4657000000000003    0.7843000000000000 # O235
  0.3750000000000003    0.6250000000000001    0.6250000000000001 # O236
  0.2520000000000000    0.0762000000000001    0.1738000000000001 # O237
 -0.0190999999999999    0.1883000000000001    0.0617000000000001 # O238
  0.1320000000000001   -0.0343000000000000    0.2843000000000000 # O239
  0.3750000000000001    0.1250000000000001    0.1250000000000001 # O240
  1.0020000000000002    0.4238000000000002    0.4238000000000001 # O241
  0.7309000000000001    0.3117000000000000    0.3117000000000000 # O242
  0.8820000000000001    0.5343000000000001    0.5343000000000001 # O243
  0.1250000000000001    0.3750000000000003    0.3750000000000001 # O244
  1.0020000000000002    0.9238000000000003    0.9237999999999998 # O245
  0.7309000000000001    0.8117000000000003    0.8117000000000000 # O246
  0.8820000000000001    1.0343000000000002    1.0343000000000002 # O247
  0.1250000000000001    0.8750000000000003    0.8750000000000000 # O248
  0.5020000000000002    0.4238000000000002    0.9237999999999998 # O249
  0.2309000000000000    0.3117000000000000    0.8117000000000000 # O250
  0.3820000000000003    0.5343000000000001    1.0343000000000002 # O251
  0.6250000000000001    0.3750000000000003    0.8750000000000000 # O252
  0.5020000000000002    0.9237999999999998    0.4238000000000001 # O253
  0.2309000000000000    0.8117000000000000    0.3117000000000000 # O254
  0.3820000000000003    1.0343000000000002    0.5343000000000001 # O255
  0.6250000000000001    0.8750000000000000    0.3750000000000001 # O256
 -0.0019999999999999    0.5762000000000000    0.5762000000000000 # O257
  0.2691000000000000    0.6883000000000005    0.6883000000000001 # O258
  0.1180000000000001    0.4657000000000003    0.4657000000000003 # O259
  0.8750000000000000    0.6250000000000001    0.6250000000000001 # O260
 -0.0020000000000001    0.0762000000000001    0.0762000000000001 # O261
  0.2691000000000000    0.1883000000000001    0.1883000000000001 # O262
  0.1180000000000001   -0.0343000000000000   -0.0343000000000000 # O263
  0.8750000000000000    0.1250000000000001    0.1250000000000001 # O264
  0.4979999999999999    0.5762000000000000    0.0762000000000001 # O265
  0.7691000000000002    0.6883000000000001    0.1883000000000001 # O266
  0.6180000000000001    0.4657000000000000   -0.0343000000000000 # O267
  0.3750000000000003    0.6250000000000001    0.1250000000000001 # O268
  0.4979999999999999    0.0762000000000001    0.5762000000000000 # O269
  0.7691000000000002    0.1883000000000001    0.6883000000000001 # O270
  0.6180000000000001   -0.0343000000000000    0.4657000000000003 # O271
  0.3750000000000003    0.1250000000000001    0.6250000000000001 # O272
 -0.0019999999999999    0.1738000000000001    0.1738000000000001 # O273
  0.2691000000000000    0.0617000000000001    0.0617000000000001 # O274
  0.1180000000000001    0.2843000000000002    0.2843000000000000 # O275
 -0.0019999999999999    0.6738000000000002    0.6738000000000000 # O276
  0.2691000000000000    0.5617000000000002    0.5617000000000002 # O277
  0.1180000000000001    0.7843000000000003    0.7843000000000000 # O278
  0.4980000000000001    0.1738000000000001    0.6738000000000000 # O279
  0.7691000000000002    0.0617000000000001    0.5617000000000002 # O280
  0.6180000000000001    0.2843000000000002    0.7843000000000000 # O281
  0.4980000000000001    0.6738000000000000    0.1738000000000001 # O282
  0.7691000000000002    0.5617000000000002    0.0617000000000001 # O283
  0.6180000000000001    0.7843000000000000    0.2843000000000000 # O284
  1.0020000000000002    0.8262000000000004    0.8262000000000000 # O285
  0.7309000000000001    0.9383000000000004    0.9383000000000004 # O286
  0.8820000000000001    0.7157000000000003    0.7157000000000001 # O287
  1.0020000000000002    0.3262000000000002    0.3262000000000000 # O288
  0.7309000000000001    0.4383000000000002    0.4383000000000000 # O289
  0.8820000000000001    0.2157000000000001    0.2157000000000001 # O290
  0.5020000000000002    0.8262000000000000    0.3262000000000000 # O291
  0.2309000000000003    0.9383000000000004    0.4383000000000000 # O292
  0.3820000000000003    0.7157000000000001    0.2157000000000001 # O293
  0.5020000000000002    0.3262000000000002    0.8262000000000000 # O294
  0.2309000000000003    0.4383000000000002    0.9383000000000004 # O295
  0.3820000000000003    0.2157000000000001    0.7157000000000001 # O296
  0.1738000000000001   -0.0019999999999999    0.1738000000000001 # O297
  0.0617000000000001    0.2691000000000000    0.0617000000000001 # O298
  0.2843000000000000    0.1180000000000001    0.2843000000000000 # O299
  0.1738000000000001    0.4980000000000001    0.6738000000000000 # O300
  0.0617000000000001    0.7691000000000002    0.5617000000000002 # O301
  0.2843000000000002    0.6180000000000001    0.7843000000000000 # O302
  0.6738000000000002   -0.0019999999999999    0.6738000000000000 # O303
  0.5617000000000002    0.2691000000000000    0.5617000000000002 # O304
  0.7843000000000000    0.1180000000000001    0.7843000000000000 # O305
  0.6738000000000000    0.4979999999999999    0.1738000000000001 # O306
  0.5617000000000002    0.7691000000000002    0.0617000000000001 # O307
  0.7843000000000000    0.6180000000000001    0.2843000000000000 # O308
  0.8262000000000000    1.0020000000000004    0.8262000000000000 # O309
  0.9383000000000004    0.7309000000000001    0.9383000000000004 # O310
  0.7157000000000001    0.8820000000000002    0.7157000000000001 # O311