$cell vectors
1.0
 10.3499951298926707    0.0000000000000000    0.0000000000000000
  0.0000000000000000   10.3499951298926707    0.0000000000000000
  0.0000000000000000    0.0000000000000000   10.3499951298926707
 4 4 32 48
Direct
  0.5000000000000000    0.5000000000000000    0.5000000000000000 # Na1
  0.5000000000000000    0.0000000000000000    0.0000000000000000 # Na2
  0.0000000000000000    0.5000000000000000    0.0000000000000000 # Na3
  0.0000000000000000    0.0000000000000000    0.5000000000000000 # Na4
  0.0000000000000000    0.0000000000000000    0.0000000000000000 # Co1
  0.0000000000000000    0.5000000000000000    0.5000000000000000 # Co2
  0.5000000000000000    0.0000000000000000    0.5000000000000000 # Co3
  0.5000000000000000    0.5000000000000000    0.0000000000000000 # Co4
  0.2900000000000001    0.2900000000000001    0.2900000000000001 # N1
  0.2100000000000000    0.2100000000000000    0.2100000000000000 # N2
  0.1999999999999999    0.0000000000000000    0.0000000000000000 # N3
  0.7000000000000000    0.0000000000000000    0.5000000000000000 # N4
  0.7000000000000000    0.5000000000000000    0.0000000000000000 # N5
  0.1999999999999999    0.5000000000000000    0.5000000000000000 # N6
  0.0000000000000000    0.1999999999999999    0.0000000000000000 # N7
  0.5000000000000000    0.7000000000000000    0.0000000000000000 # N8
  0.0000000000000000    0.7000000000000000    0.5000000000000000 # N9
  0.5000000000000000    0.1999999999999999    0.5000000000000000 # N10
  0.0000000000000000    0.0000000000000000    0.1999999999999999 # N11
  0.0000000000000000    0.5000000000000000    0.7000000000000000 # N12
  0.5000000000000000    0.0000000000000000    0.7000000000000000 # N13
  0.5000000000000000    0.5000000000000000    0.1999999999999999 # N14
  0.7100000000000001    0.7100000000000001    0.2900000000000001 # N15
  0.7900000000000000    0.7900000000000000    0.2100000000000000 # N16
  0.2900000000000001    0.7100000000000001    0.7100000000000001 # N17
  0.2100000000000000    0.7900000000000000    0.7900000000000000 # N18
  0.0000000000000000   -0.1999999999999999    0.0000000000000000 # N19
  0.5000000000000000    0.3000000000000001    0.0000000000000000 # N20
  0.0000000000000000    0.3000000000000001    0.5000000000000000 # N21
  0.5000000000000000   -0.1999999999999999    0.5000000000000000 # N22
  0.7100000000000001    0.2900000000000001    0.7100000000000001 # N23
  0.7900000000000000    0.2100000000000000    0.7900000000000000 # N24
  0.0000000000000000    0.0000000000000000   -0.1999999999999999 # N25
  0.0000000000000000    0.5000000000000000    0.3000000000000001 # N26
  0.5000000000000000    0.0000000000000000    0.3000000000000001 # N27
  0.5000000000000000    0.5000000000000000   -0.1999999999999999 # N28
 -0.1999999999999999    0.0000000000000000    0.0000000000000000 # N29
  0.3000000000000001    0.0000000000000000    0.5000000000000000 # N30
  0.3000000000000001    0.5000000000000000    0.0000000000000000 # N31
 -0.1999999999999999    0.5000000000000000    0.5000000000000000 # N32
  0.0000000000000000    0.1000000000000002    0.2499999999999998 # O1
  0.5000000000000000    0.5999999999999996    0.2499999999999998 # O2
  0.5000000000000000    0.1000000000000002    0.7499999999999999 # O3
  0.0000000000000000    0.6000000000000002    0.7499999999999999 # O4
  0.2499999999999998    0.0000000000000000    0.1000000000000002 # O5
  0.2500000000000003    0.5000000000000000    0.5999999999999996 # O6
  0.7499999999999999    0.5000000000000000    0.1000000000000002 # O7
  0.7499999999999999    0.0000000000000000    0.5999999999999996 # O8
  0.1000000000000002    0.2499999999999998    0.0000000000000000 # O9
  0.5999999999999996    0.2499999999999998    0.5000000000000000 # O10
  0.1000000000000002    0.7499999999999999    0.5000000000000000 # O11
  0.6000000000000002    0.7499999999999999    0.0000000000000000 # O12
 -0.1000000000000002   -0.2499999999999998    0.0000000000000000 # O13
  0.3999999999999999   -0.2499999999999998    0.5000000000000000 # O14
 -0.0999999999999997    0.2499999999999998    0.5000000000000000 # O15
  0.3999999999999999    0.2499999999999998    0.0000000000000000 # O16
  0.2499999999999998    0.0000000000000000   -0.1000000000000002 # O17
  0.2500000000000003    0.5000000000000000    0.3999999999999999 # O18
  0.7499999999999999    0.5000000000000000   -0.1000000000000002 # O19
  0.7499999999999999    0.0000000000000000    0.3999999999999999 # O20
 -0.1000000000000002    0.2499999999999998    0.0000000000000000 # O21
  0.3999999999999999    0.2499999999999998    0.5000000000000000 # O22
 -0.0999999999999997    0.7499999999999999    0.5000000000000000 # O23
  0.3999999999999999    0.7499999999999999    0.0000000000000000 # O24
 -0.2499999999999998    0.0000000000000000    0.1000000000000002 # O25
 -0.2499999999999998    0.5000000000000000    0.5999999999999996 # O26
  0.2499999999999998    0.5000000000000000    0.1000000000000002 # O27
  0.2499999999999998    0.0000000000000000    0.5999999999999996 # O28
 -0.2499999999999998    0.0000000000000000   -0.1000000000000002 # O29
 -0.2499999999999998    0.5000000000000000    0.3999999999999999 # O30
  0.2499999999999998    0.5000000000000000   -0.1000000000000002 # O31
  0.2499999999999998    0.0000000000000000    0.3999999999999999 # O32
  0.1000000000000002   -0.2499999999999998    0.0000000000000000 # O33
  0.5999999999999996   -0.2499999999999998    0.5000000000000000 # O34
  0.1000000000000002    0.2499999999999998    0.5000000000000000 # O35
  0.5999999999999996    0.2499999999999998    0.0000000000000000 # O36
  0.0000000000000000   -0.1000000000000002    0.2499999999999998 # O37
  0.5000000000000000    0.3999999999999999    0.2499999999999998 # O38
  0.5000000000000000   -0.0999999999999997    0.7499999999999999 # O39
  0.0000000000000000    0.3999999999999999    0.7499999999999999 # O40
  0.0000000000000000   -0.1000000000000002   -0.2499999999999998 # O41
  0.5000000000000000    0.3999999999999999   -0.2499999999999998 # O42
  0.5000000000000000   -0.1000000000000002    0.2499999999999998 # O43
  0.0000000000000000    0.3999999999999999    0.2499999999999998 # O44
  0.0000000000000000    0.1000000000000002   -0.2499999999999998 # O45
  0.5000000000000000    0.5999999999999996   -0.2499999999999998 # O46
  0.5000000000000000    0.1000000000000002    0.2499999999999998 # O47
  0.0000000000000000    0.5999999999999996    0.2499999999999998 # O48
