$cell vectors
1.0
 10.2499951769468431    0.0000000000000000    0.0000000000000000
  0.0000000000000000   10.2499951769468431    0.0000000000000000
  0.0000000000000000    0.0000000000000000   10.2499951769468431
 26 40
Direct
  0.8580000000000002    0.6869999999999999   -0.0280000000000000 # Bi1
  0.0000000000000000    0.0000000000000000    0.0000000000000000 # Bi2
  0.3580000000000002    0.1870000000000000    0.4720000000000001 # Bi3
  0.5000000000000000    0.5000000000000000    0.5000000000000000 # Bi4
  0.9720000000000002    0.8580000000000002   -0.3130000000000001 # Bi5
  0.4720000000000001    0.3580000000000002    0.1870000000000000 # Bi6
  0.6870000000000005    0.9720000000000002   -0.1420000000000004 # Bi7
  0.1870000000000000    0.4720000000000001    0.3580000000000002 # Bi8
  1.3130000000000002    1.0280000000000007   -0.1419999999999999 # Bi9
  0.8130000000000002    0.5279999999999999    0.3580000000000002 # Bi10
  0.9720000000000002    1.1420000000000006    0.3130000000000001 # Bi11
  0.4720000000000001    0.6420000000000005    0.8130000000000002 # Bi12
  1.3130000000000002    0.9720000000000002    0.1419999999999999 # Bi13
  0.8130000000000002    0.4720000000000001    0.6420000000000000 # Bi14
  1.0280000000000007    1.1420000000000006   -0.3130000000000001 # Bi15
  0.5279999999999999    0.6420000000000000    0.1870000000000000 # Bi16
  1.0280000000000007    0.8580000000000002    0.3130000000000001 # Bi17
  0.5279999999999999    0.3580000000000002    0.8130000000000002 # Bi18
  0.6870000000000005    1.0280000000000007    0.1419999999999999 # Bi19
  0.1870000000000000    0.5279999999999999    0.6420000000000000 # Bi20
  1.1420000000000006    1.3130000000000002   -0.0280000000000000 # Bi21
  0.6420000000000005    0.8130000000000002    0.4720000000000001 # Bi22
  0.8580000000000002    1.3130000000000002    0.0280000000000000 # Bi23
  0.3580000000000002    0.8130000000000002    0.5279999999999999 # Bi24
  1.1420000000000006    0.6869999999999999    0.0280000000000000 # Bi25
  0.6420000000000000    0.1870000000000000    0.5279999999999999 # Bi26
  0.9210000000000002    0.7380000000000000   -0.4860000000000003 # O1
  0.7160000000000003    0.7160000000000003    0.7160000000000003 # O2
  1.1480000000000001    1.1480000000000001    0.1480000000000002 # O3
  0.4210000000000002    0.2380000000000004    0.0140000000000002 # O4
  1.2160000000000004    1.2160000000000004    0.2160000000000002 # O5
  0.6480000000000002    0.6480000000000002    0.6480000000000002 # O6
  0.5140000000000003    0.9210000000000002   -0.2620000000000002 # O7
  0.0140000000000002    0.4210000000000002    0.2380000000000004 # O8
  0.7380000000000003    0.5140000000000003   -0.0789999999999999 # O9
  0.2380000000000004    0.0140000000000002    0.4210000000000002 # O10
  1.2620000000000009    1.4860000000000004   -0.0789999999999999 # O11
  0.2840000000000003    0.2840000000000003    0.7160000000000003 # O12
  0.8520000000000005    0.8520000000000005    0.1480000000000002 # O13
  0.7620000000000002    0.9860000000000004    0.4210000000000002 # O14
  0.7840000000000004    0.7840000000000004    0.2160000000000002 # O15
  0.3520000000000003    0.3520000000000003    0.6480000000000002 # O16
  0.5140000000000003    1.0790000000000004    0.2620000000000002 # O17
  0.7160000000000003    0.2840000000000003    0.2839999999999998 # O18
  1.1480000000000001    0.8520000000000005   -0.1480000000000002 # O19
  0.0140000000000002    0.5790000000000004    0.7620000000000002 # O20
  1.2160000000000004    0.7840000000000004   -0.2160000000000002 # O21
  0.6480000000000002    0.3520000000000003    0.3519999999999999 # O22
  1.2620000000000002    0.5140000000000003    0.0789999999999999 # O23
  0.2840000000000003    0.7160000000000003    0.2839999999999998 # O24
  0.8520000000000005    1.1480000000000001   -0.1480000000000002 # O25
  0.7620000000000002    0.0140000000000002    0.5790000000000000 # O26
  0.7840000000000004    1.2160000000000004   -0.2160000000000002 # O27
  0.3520000000000003    0.6480000000000002    0.3519999999999999 # O28
  1.4860000000000004    1.0790000000000004   -0.2620000000000002 # O29
  0.9860000000000004    0.5790000000000000    0.2380000000000004 # O30
  1.4860000000000004    0.9210000000000002    0.2620000000000002 # O31
  0.9860000000000004    0.4210000000000002    0.7620000000000002 # O32
  0.7380000000000003    1.4860000000000004    0.0789999999999999 # O33
  0.2380000000000004    0.9860000000000004    0.5790000000000000 # O34
  1.0790000000000004    1.2620000000000002   -0.4860000000000003 # O35
  0.5790000000000004    0.7620000000000002    0.0140000000000002 # O36
  0.9210000000000002    1.2620000000000002    0.4860000000000003 # O37
  0.4210000000000002    0.7620000000000002    0.9860000000000004 # O38
  1.0790000000000004    0.7380000000000003    0.4860000000000003 # O39
  0.5790000000000004    0.2380000000000004    0.9860000000000004 # O40
