$cell vectors
1.0
 10.9899948287459370    0.0000000000000000    0.0000000000000000
  0.0000000000000000   10.9899948287459370    0.0000000000000000
  0.0000000000000000    0.0000000000000000   10.9899948287459370
 20 12 64
Direct
  0.0000000000000000    0.0000000000000000    0.0000000000000000 # Nd1
  0.9800000000000001    0.2499999999999999    0.2499999999999999 # Nd2
  0.0200000000000001    0.7500000000000002    0.7499999999999996 # Nd3
  0.4999999999999998    0.0000000000000000    0.0000000000000000 # Nd4
  0.2499999999999999    0.9800000000000001    0.2499999999999999 # Nd5
  0.7499999999999996    0.0200000000000001    0.7499999999999996 # Nd6
  0.4999999999999998    0.4999999999999998    0.0000000000000000 # Nd7
  0.5200000000000000    0.2499999999999999    0.2499999999999999 # Nd8
  0.4800000000000001    0.7500000000000002    0.7499999999999996 # Nd9
  0.0000000000000000    0.4999999999999998    0.0000000000000000 # Nd10
  0.2499999999999999    0.5200000000000000    0.2499999999999999 # Nd11
  0.7499999999999996    0.4800000000000001    0.7499999999999996 # Nd12
  0.0000000000000000    0.4999999999999998    0.4999999999999998 # Nd13
  0.0000000000000000    0.0000000000000000    0.4999999999999998 # Nd14
  0.2499999999999999    0.2499999999999999    0.5200000000000000 # Nd15
  0.7499999999999996    0.7499999999999996    0.4800000000000001 # Nd16
  0.4999999999999998    0.0000000000000000    0.4999999999999998 # Nd17
  0.2499999999999999    0.2499999999999999    0.9800000000000001 # Nd18
  0.7499999999999996    0.7499999999999996    0.0200000000000001 # Nd19
  0.4999999999999998    0.4999999999999998    0.4999999999999998 # Nd20
  0.0000000000000000    0.7499999999999996    0.2499999999999999 # Mo1
  0.0000000000000000    0.2499999999999999    0.7499999999999996 # Mo2
  0.7499999999999996    0.0000000000000000    0.2499999999999999 # Mo3
  0.2500000000000004    0.0000000000000000    0.7499999999999996 # Mo4
  0.4999999999999998    0.7499999999999996    0.2499999999999999 # Mo5
  0.4999999999999998    0.2499999999999999    0.7499999999999996 # Mo6
  0.7499999999999996    0.4999999999999998    0.2499999999999999 # Mo7
  0.2499999999999999    0.4999999999999998    0.7499999999999996 # Mo8
  0.2499999999999999    0.7499999999999996    0.4999999999999998 # Mo9
  0.7499999999999996    0.2499999999999999    0.4999999999999998 # Mo10
  0.2499999999999999    0.7499999999999996    0.0000000000000000 # Mo11
  0.7499999999999996    0.2499999999999999    0.0000000000000000 # Mo12
  0.3299999999999999    0.0700000000000002    0.8699999999999999 # O1
  0.1279999999999998    0.1279999999999998    0.1279999999999998 # O2
  0.6700000000000002    0.9299999999999998    0.1300000000000001 # O3
  0.8720000000000002    0.8720000000000002    0.8720000000000002 # O4
  0.4300000000000001    0.3299999999999999    0.8699999999999999 # O5
  0.3719999999999999    0.1279999999999998    0.1279999999999998 # O6
  0.5700000000000000    0.6700000000000002    0.1300000000000001 # O7
  0.6280000000000001    0.8720000000000002    0.8720000000000002 # O8
  0.1699999999999999    0.4300000000000001    0.8699999999999999 # O9
  0.3719999999999999    0.3719999999999999    0.1279999999999998 # O10
  0.8300000000000003    0.5700000000000000    0.1300000000000001 # O11
  0.6280000000000001    0.6280000000000001    0.8720000000000002 # O12
  0.0700000000000002    0.1699999999999999    0.8699999999999999 # O13
  0.1279999999999998    0.3719999999999999    0.1279999999999998 # O14
  0.9299999999999998    0.8300000000000003    0.1300000000000001 # O15
  0.8720000000000002    0.6280000000000001    0.8720000000000002 # O16
  0.3299999999999999    0.6299999999999999    0.0700000000000002 # O17
  0.6700000000000002    0.3700000000000002    0.9299999999999998 # O18
  0.3299999999999999    0.4300000000000001    0.6299999999999999 # O19
  0.1279999999999998    0.3719999999999999    0.3719999999999999 # O20
  0.6700000000000002    0.5700000000000000    0.3700000000000002 # O21
  0.8720000000000002    0.6280000000000001    0.6280000000000001 # O22
  0.3299999999999999    0.8699999999999999    0.4300000000000001 # O23
  0.1279999999999998    0.1279999999999998    0.3719999999999999 # O24
  0.6700000000000002    0.1300000000000001    0.5700000000000000 # O25
  0.8720000000000002    0.8720000000000002    0.6280000000000001 # O26
  0.8699999999999999    0.0700000000000002    0.1699999999999999 # O27
  0.1300000000000001    0.9299999999999998    0.8300000000000003 # O28
  0.1699999999999999    0.0700000000000002    0.6299999999999999 # O29
  0.3719999999999999    0.1279999999999998    0.3719999999999999 # O30
  0.8300000000000003    0.9299999999999998    0.3700000000000002 # O31
  0.6280000000000001    0.8720000000000002    0.6280000000000001 # O32
  0.6299999999999999    0.0700000000000002    0.3299999999999999 # O33
  0.3700000000000002    0.9299999999999998    0.6700000000000002 # O34
  0.8699999999999999    0.3299999999999999    0.0700000000000002 # O35
  0.1300000000000001    0.6700000000000002    0.9299999999999998 # O36
  0.0700000000000002    0.8699999999999999    0.3299999999999999 # O37
  0.9299999999999998    0.1300000000000001    0.6700000000000002 # O38
  0.4300000000000001    0.6299999999999999    0.3299999999999999 # O39
  0.5700000000000000    0.3700000000000002    0.6700000000000002 # O40
  0.8699999999999999    0.1699999999999999    0.4300000000000001 # O41
  0.1300000000000001    0.8300000000000003    0.5700000000000000 # O42
  0.4300000000000001    0.8699999999999999    0.1699999999999999 # O43
  0.5700000000000000    0.1300000000000001    0.8300000000000003 # O44
  0.6299999999999999    0.1699999999999999    0.0700000000000002 # O45
  0.3700000000000002    0.8300000000000003    0.9299999999999998 # O46
  0.6299999999999999    0.3299999999999999    0.4300000000000001 # O47
  0.3700000000000002    0.6700000000000002    0.5700000000000000 # O48
  0.0700000000000002    0.6299999999999999    0.1699999999999999 # O49
  0.9299999999999998    0.3700000000000002    0.8300000000000003 # O50
  0.0700000000000002    0.3299999999999999    0.6299999999999999 # O51
  0.9299999999999998    0.6700000000000002    0.3700000000000002 # O52
  0.4300000000000001    0.1699999999999999    0.6299999999999999 # O53
  0.3719999999999999    0.3719999999999999    0.3719999999999999 # O54
  0.5700000000000000    0.8300000000000003    0.3700000000000002 # O55
  0.6280000000000001    0.6280000000000001    0.6280000000000001 # O56
  0.1699999999999999    0.8699999999999999    0.0700000000000002 # O57
  0.8300000000000003    0.1300000000000001    0.9299999999999998 # O58
  0.1699999999999999    0.6299999999999999    0.4300000000000001 # O59
  0.8300000000000003    0.3700000000000002    0.5700000000000000 # O60
  0.8699999999999999    0.4300000000000001    0.3299999999999999 # O61
  0.1300000000000001    0.5700000000000000    0.6700000000000002 # O62
  0.6299999999999999    0.4300000000000001    0.1699999999999999 # O63
  0.3700000000000002    0.5700000000000000    0.8300000000000003 # O64
