$cell vectors
1.0
  7.5769964347050003    0.0000000000000000    0.0000000000000000
  0.0000000000000000    7.5769964347050003    0.0000000000000000
  0.0000000000000000    0.0000000000000000    7.5769964347050003
 4 16 28
Direct
  0.0000000000000000    0.0000000000000000    0.0000000000000000 # Te1
  0.0000000000000000    0.4999999999999999    0.4999999999999999 # Te2
  0.4999999999999999    0.0000000000000000    0.4999999999999999 # Te3
  0.4999999999999999    0.4999999999999999    0.0000000000000000 # Te4
  0.6270000000000000    0.6270000000000000    0.6270000000000000 # Be1
  0.6270000000000000    0.1270000000000001    0.1270000000000001 # Be2
  0.1270000000000001    0.6270000000000000    0.1270000000000001 # Be3
  0.1270000000000001    0.1270000000000001    0.6270000000000000 # Be4
  0.6270000000000000    0.3729999999999998    0.3729999999999998 # Be5
  0.6270000000000000    0.8730000000000003    0.8730000000000003 # Be6
  0.1270000000000001    0.3729999999999998    0.8730000000000003 # Be7
  0.1270000000000001    0.8730000000000003    0.3729999999999998 # Be8
  0.3729999999999998    0.3729999999999998    0.6270000000000000 # Be9
  0.3729999999999998    0.8730000000000003    0.1270000000000001 # Be10
  0.8730000000000003    0.3729999999999998    0.1270000000000001 # Be11
  0.8730000000000003    0.8730000000000003    0.6270000000000000 # Be12
  0.3729999999999998    0.6270000000000000    0.3729999999999998 # Be13
  0.3729999999999998    0.1270000000000001    0.8730000000000003 # Be14
  0.8730000000000003    0.6270000000000000    0.8730000000000003 # Be15
  0.8730000000000003    0.1270000000000001    0.3729999999999998 # Be16
  0.2531999999999996    0.0000000000000000    0.0000000000000000 # O1
  0.7500000000000002    0.7500000000000002    0.7500000000000002 # O2
  0.2532000000000003    0.4999999999999999    0.4999999999999999 # O3
  0.7500000000000002    0.2500000000000003    0.2500000000000003 # O4
  0.7532000000000001    0.0000000000000000    0.4999999999999999 # O5
  0.2500000000000003    0.7500000000000002    0.2500000000000003 # O6
  0.7532000000000001    0.4999999999999999    0.0000000000000000 # O7
  0.2500000000000003    0.2500000000000003    0.7500000000000002 # O8
  0.0000000000000000   -0.2531999999999996    0.0000000000000000 # O9
  0.0000000000000000    0.2468000000000003    0.4999999999999999 # O10
  0.4999999999999999   -0.2531999999999996    0.4999999999999999 # O11
  0.4999999999999999    0.2468000000000003    0.0000000000000000 # O12
 -0.2531999999999996    0.0000000000000000    0.0000000000000000 # O13
 -0.2531999999999996    0.4999999999999999    0.4999999999999999 # O14
  0.2468000000000003    0.0000000000000000    0.4999999999999999 # O15
  0.2468000000000003    0.4999999999999999    0.0000000000000000 # O16
  0.0000000000000000    0.2531999999999996    0.0000000000000000 # O17
  0.0000000000000000    0.7532000000000001    0.4999999999999999 # O18
  0.4999999999999999    0.2532000000000003    0.4999999999999999 # O19
  0.4999999999999999    0.7532000000000001    0.0000000000000000 # O20
  0.0000000000000000    0.0000000000000000    0.2531999999999996 # O21
  0.0000000000000000    0.4999999999999999    0.7532000000000001 # O22
  0.4999999999999999    0.0000000000000000    0.7532000000000001 # O23
  0.4999999999999999    0.4999999999999999    0.2531999999999996 # O24
  0.0000000000000000    0.0000000000000000   -0.2531999999999996 # O25
  0.0000000000000000    0.4999999999999999    0.2468000000000003 # O26
  0.4999999999999999    0.0000000000000000    0.2468000000000003 # O27
  0.4999999999999999    0.4999999999999999   -0.2531999999999996 # O28
