$cell vectors
1.0
  6.3099970308814211    0.0000000000000000    0.0000000000000000
  0.0000000000000000    6.3099970308814211    0.0000000000000000
  0.0000000000000000    0.0000000000000000    6.3099970308814211
 4 12
Direct
  0.2500000000000001    0.2500000000000001    0.2500000000000001 # P1
  0.2500000000000001    0.7500000000000009    0.7500000000000000 # P2
  0.7500000000000000    0.7500000000000000    0.2500000000000001 # P3
  0.7500000000000000    0.2500000000000001    0.7500000000000000 # P4
  0.1839999999999999    0.5000000000000001    0.0000000000000000 # H1
  0.0000000000000000    0.6840000000000005    0.5000000000000001 # H2
  0.8160000000000002    0.5000000000000001    0.0000000000000000 # H3
  0.0000000000000000    0.3160000000000002    0.5000000000000001 # H4
  0.6840000000000005    0.5000000000000001    0.0000000000000000 # H5
  0.5000000000000001    0.0000000000000000    0.3160000000000002 # H6
  0.5000000000000001    0.0000000000000000    0.6840000000000005 # H7
  0.0000000000000000    0.1839999999999999    0.5000000000000001 # H8
  0.5000000000000001    0.0000000000000000    0.1839999999999999 # H9
  0.0000000000000000    0.8160000000000002    0.5000000000000001 # H10
  0.5000000000000001    0.0000000000000000    0.8160000000000002 # H11
  0.3160000000000002    0.5000000000000001    0.0000000000000000 # H12
