System = PrO2
ALGO = A
EDIFF = 1e-06
ENCUT = 520
GGA = PS
IBRION = 2
ICHARG = 2
ISIF = 3
ISMEAR = -5
ISPIN = 2
ISTART = 0
LAECHG = True
LCHARG = True
LORBIT = 11
LPEAD = False
LREAL = False
LVHAR = True
LWAVE = True
NELM = 450
NSW = 400
LPLANE = TRUE
NCORE = 16
NPAR = 16
LSCALU = False
NSIM = 4
PREC = Accurate
SIGMA = 0.02
METAGGA = SCAN
LASPH = True
ADDGRID = True
LUSE_VDW = True
BPARAM = 15.7
LASPH = TRUE
AMIX = 0.1             # linear mixing parameter
IMIX = 1               # use Kerker mixing scheme
BMIX = 0.0001          # cutoff wave vector for Kerker mixing
