$cell vectors
1.0
 12.1409942871523580    0.0000000000000000    0.0000000000000000
  0.0000000000000000   12.1409942871523580    0.0000000000000000
  0.0000000000000000    0.0000000000000000   12.1409942871523580
 56 56 96 8
Direct
  0.8707000000000000    0.8707000000000005    0.8707000000000000 # Li1
  0.0000000000000000    0.2500000000000001    0.2500000000000001 # Li2
  0.8707000000000000    0.3707000000000001    0.3707000000000001 # Li3
  0.0000000000000000    0.7500000000000004    0.7500000000000000 # Li4
  0.3707000000000001    0.8707000000000000    0.3707000000000001 # Li5
  0.5000000000000002    0.2500000000000001    0.7500000000000000 # Li6
  0.3707000000000001    0.3707000000000001    0.8707000000000000 # Li7
  0.5000000000000002    0.7500000000000000    0.2500000000000001 # Li8
  0.8707000000000000    0.1293000000000002    0.6293000000000000 # Li9
  0.2500000000000001    0.0000000000000000    0.2500000000000001 # Li10
  0.8707000000000000    0.6293000000000000    0.1293000000000002 # Li11
  0.2500000000000001    0.5000000000000002    0.7500000000000000 # Li12
  0.3707000000000001    0.1293000000000002    0.1293000000000002 # Li13
  0.7500000000000000    0.0000000000000000    0.7500000000000000 # Li14
  0.3707000000000001    0.6293000000000000    0.6293000000000000 # Li15
  0.7500000000000000    0.4999999999999997    0.2500000000000001 # Li16
  0.1293000000000002    0.1293000000000002    0.8707000000000000 # Li17
  0.0000000000000000    0.7500000000000000    0.2500000000000001 # Li18
  0.1293000000000002    0.6293000000000000    0.3707000000000001 # Li19
  0.0000000000000000    0.2500000000000001    0.7500000000000000 # Li20
  0.6293000000000000    0.1293000000000002    0.3707000000000001 # Li21
  0.5000000000000002    0.7500000000000004    0.7500000000000000 # Li22
  0.6293000000000000    0.6293000000000000    0.8707000000000000 # Li23
  0.4999999999999997    0.2500000000000001    0.2500000000000001 # Li24
  0.1293000000000002    0.8707000000000000    0.6293000000000000 # Li25
  0.7500000000000000    0.0000000000000000    0.2500000000000001 # Li26
  0.1293000000000002    0.3707000000000001    0.1293000000000002 # Li27
  0.7500000000000000    0.5000000000000002    0.7500000000000000 # Li28
  0.6293000000000000    0.8707000000000000    0.1293000000000002 # Li29
  0.2500000000000001    0.0000000000000000    0.7500000000000000 # Li30
  0.6293000000000000    0.3707000000000001    0.6293000000000000 # Li31
  0.2500000000000001    0.4999999999999997    0.2500000000000001 # Li32
  0.8707000000000000    0.1293000000000002    0.1293000000000002 # Li33
  0.8707000000000000    0.6293000000000000    0.6293000000000000 # Li34
  0.3707000000000001    0.1293000000000002    0.6293000000000000 # Li35
  0.3707000000000001    0.6293000000000000    0.1293000000000002 # Li36
  0.1293000000000002    0.1293000000000002    0.3707000000000001 # Li37
  0.1293000000000002    0.6293000000000000    0.8707000000000000 # Li38
  0.6293000000000000    0.1293000000000002    0.8707000000000000 # Li39
  0.6293000000000000    0.6293000000000000    0.3707000000000001 # Li40
  0.7500000000000000    0.7500000000000000    0.4999999999999997 # Li41
  0.7500000000000000    0.2500000000000001    0.0000000000000000 # Li42
  0.2500000000000001    0.7500000000000000    0.0000000000000000 # Li43
  0.2500000000000001    0.2500000000000001    0.4999999999999997 # Li44
  0.1293000000000002    0.8707000000000000    0.1293000000000002 # Li45
  0.1293000000000002    0.3707000000000001    0.6293000000000000 # Li46
  0.6293000000000000    0.8707000000000000    0.6293000000000000 # Li47
  0.6293000000000000    0.3707000000000001    0.1293000000000002 # Li48
  0.2500000000000001    0.7500000000000000    0.4999999999999997 # Li49
  0.2500000000000001    0.2500000000000001    0.0000000000000000 # Li50
  0.7500000000000000    0.7500000000000000    0.0000000000000000 # Li51
  0.7500000000000000    0.2500000000000001    0.4999999999999997 # Li52
  0.8707000000000000    0.8707000000000000    0.3707000000000001 # Li53
  0.8707000000000000    0.3707000000000001    0.8707000000000000 # Li54
  0.3707000000000001    0.8707000000000005    0.8707000000000000 # Li55
  0.3707000000000001    0.3707000000000001    0.3707000000000001 # Li56
  0.2500000000000001    0.0000000000000000    0.0000000000000000 # B1
  0.1002999999999999    0.1002999999999999    0.1002999999999999 # B2
  0.2500000000000001    0.5000000000000002    0.4999999999999997 # B3
  0.1002999999999999    0.6003000000000001    0.6003000000000001 # B4
  0.7500000000000000    0.0000000000000000    0.4999999999999997 # B5
  0.6003000000000001    0.1002999999999999    0.6003000000000001 # B6
  0.7500000000000000    0.4999999999999997    0.0000000000000000 # B7
  0.6003000000000001    0.6003000000000001    0.1002999999999999 # B8
  0.0000000000000000    0.7500000000000000    0.4999999999999997 # B9
  0.1002999999999999    0.8997000000000001    0.3996999999999999 # B10
  0.0000000000000000    0.2500000000000001    0.0000000000000000 # B11
  0.1002999999999999    0.3996999999999999    0.8997000000000001 # B12
  0.5000000000000002    0.7500000000000000    0.0000000000000000 # B13
  0.6003000000000001    0.8997000000000001    0.8997000000000001 # B14
  0.4999999999999997    0.2500000000000001    0.4999999999999997 # B15
  0.6003000000000001    0.3996999999999999    0.3996999999999999 # B16
  0.7500000000000000    0.0000000000000000    0.0000000000000000 # B17
  0.8997000000000001    0.8997000000000001    0.1002999999999999 # B18
  0.7500000000000000    0.5000000000000002    0.4999999999999997 # B19
  0.8997000000000001    0.3996999999999999    0.6003000000000001 # B20
  0.2500000000000001    0.0000000000000000    0.4999999999999997 # B21
  0.3997000000000003    0.8997000000000001    0.6003000000000001 # B22
  0.2500000000000001    0.4999999999999997    0.0000000000000000 # B23
  0.3996999999999999    0.3996999999999999    0.1002999999999999 # B24
  0.0000000000000000    0.2500000000000001    0.4999999999999997 # B25
  0.8997000000000001    0.1002999999999999    0.3996999999999999 # B26
  0.0000000000000000    0.7500000000000000    0.0000000000000000 # B27
  0.8997000000000001    0.6003000000000001    0.8997000000000001 # B28
  0.4999999999999997    0.2500000000000001    0.0000000000000000 # B29
  0.3996999999999999    0.1002999999999999    0.8997000000000001 # B30
  0.5000000000000002    0.7500000000000000    0.4999999999999997 # B31
  0.3996999999999999    0.6003000000000001    0.3996999999999999 # B32
  0.1002999999999999    0.8997000000000001    0.8997000000000001 # B33
  0.1002999999999999    0.3996999999999999    0.3996999999999999 # B34
  0.6003000000000001    0.8997000000000001    0.3996999999999999 # B35
  0.6003000000000001    0.3996999999999999    0.8997000000000001 # B36
  0.8997000000000001    0.8997000000000001    0.6003000000000001 # B37
  0.8997000000000001    0.3996999999999999    0.1002999999999999 # B38
  0.3996999999999999    0.8997000000000001    0.1002999999999999 # B39
  0.3996999999999999    0.3996999999999999    0.6003000000000001 # B40
  0.0000000000000000    0.0000000000000000    0.7500000000000000 # B41
  0.0000000000000000    0.4999999999999997    0.2500000000000001 # B42
  0.4999999999999997    0.0000000000000000    0.2500000000000001 # B43
  0.5000000000000002    0.5000000000000002    0.7500000000000000 # B44
  0.8997000000000001    0.1002999999999999    0.8997000000000001 # B45
  0.8997000000000001    0.6003000000000001    0.3996999999999999 # B46
  0.3996999999999999    0.1002999999999999    0.3996999999999999 # B47
  0.3997000000000003    0.6003000000000001    0.8997000000000001 # B48
  0.0000000000000000    0.0000000000000000    0.2500000000000001 # B49
  0.0000000000000000    0.5000000000000002    0.7500000000000000 # B50
  0.5000000000000002    0.0000000000000000    0.7500000000000000 # B51
  0.4999999999999997    0.4999999999999997    0.2500000000000001 # B52
  0.1002999999999999    0.1002999999999999    0.6003000000000001 # B53
  0.1002999999999999    0.6003000000000001    0.1002999999999999 # B54
  0.6003000000000001    0.1002999999999999    0.1002999999999999 # B55
  0.6003000000000001    0.6003000000000001    0.6003000000000001 # B56
  0.0225000000000002    0.0980999999999999    0.1817000000000000 # O1
  0.0225000000000002    0.5981000000000002    0.6816999999999999 # O2
  0.5225000000000000    0.0980999999999999    0.6816999999999999 # O3
  0.5225000000000000    0.5980999999999997    0.1817000000000000 # O4
  0.0980999999999999    0.9774999999999998    0.3182999999999998 # O5
  0.0980999999999999    0.4775000000000000    0.8183000000000001 # O6
  0.5981000000000002    0.9775000000000003    0.8183000000000001 # O7
  0.5980999999999997    0.4775000000000000    0.3182999999999998 # O8
  0.9774999999999998    0.9019000000000001    0.1817000000000000 # O9
  0.9774999999999998    0.4018999999999999    0.6816999999999999 # O10
  0.4775000000000000    0.9019000000000001    0.6816999999999999 # O11
  0.4775000000000000    0.4018999999999999    0.1817000000000000 # O12
  0.9018999999999997    0.0225000000000002    0.3182999999999998 # O13
  0.9019000000000001    0.5225000000000000    0.8183000000000001 # O14
  0.4018999999999999    0.0225000000000002    0.8183000000000001 # O15
  0.4018999999999999    0.5225000000000000    0.3182999999999998 # O16
  0.9774999999999998    0.1817000000000000    0.4018999999999999 # O17
  0.9774999999999998    0.6817000000000003    0.9019000000000001 # O18
  0.4775000000000000    0.1817000000000000    0.9019000000000001 # O19
  0.4775000000000000    0.6816999999999999    0.4018999999999999 # O20
  0.0225000000000002    0.9019000000000001    0.8183000000000001 # O21
  0.0225000000000002    0.4018999999999999    0.3182999999999998 # O22
  0.5225000000000000    0.9019000000000001    0.3182999999999998 # O23
  0.5225000000000000    0.4018999999999999    0.8183000000000001 # O24
  0.9774999999999998    0.8183000000000001    0.5980999999999997 # O25
  0.9774999999999998    0.3182999999999998    0.0980999999999999 # O26
  0.4775000000000000    0.8183000000000001    0.0980999999999999 # O27
  0.4775000000000000    0.3183000000000002    0.5980999999999997 # O28
  0.8183000000000001    0.9019000000000001    0.5225000000000000 # O29
  0.8183000000000001    0.4018999999999999    0.0224999999999997 # O30
  0.3183000000000002    0.9019000000000001    0.0225000000000002 # O31
  0.3183000000000002    0.4018999999999999    0.5225000000000000 # O32
  0.9774999999999998    0.0980999999999999    0.8183000000000001 # O33
  0.9774999999999998    0.5980999999999997    0.3182999999999998 # O34
  0.4775000000000000    0.0980999999999999    0.3182999999999998 # O35
  0.4775000000000000    0.5981000000000002    0.8183000000000001 # O36
  0.1817000000000000    0.9019000000000001    0.4775000000000000 # O37
  0.1817000000000000    0.4018999999999999    0.9774999999999998 # O38
  0.6816999999999999    0.9019000000000001    0.9774999999999998 # O39
  0.6816999999999999    0.4018999999999999    0.4775000000000000 # O40
  0.1817000000000000    0.0225000000000002    0.0980999999999999 # O41
  0.1817000000000000    0.5225000000000000    0.5980999999999997 # O42
  0.6816999999999999    0.0225000000000002    0.5980999999999997 # O43
  0.6816999999999999    0.5225000000000000    0.0980999999999999 # O44
  0.0980999999999999    0.1817000000000000    0.0225000000000002 # O45
  0.0980999999999999    0.6816999999999999    0.5225000000000000 # O46
  0.5980999999999997    0.1817000000000000    0.5225000000000000 # O47
  0.5981000000000002    0.6816999999999999    0.0225000000000002 # O48
  0.9019000000000001    0.8183000000000001    0.0225000000000002 # O49
  0.9018999999999997    0.3183000000000002    0.5225000000000000 # O50
  0.4018999999999999    0.8183000000000001    0.5225000000000000 # O51
  0.4018999999999999    0.3182999999999998    0.0225000000000002 # O52
  0.1817000000000000    0.9775000000000003    0.9019000000000001 # O53
  0.1817000000000000    0.4775000000000000    0.4018999999999999 # O54
  0.6816999999999999    0.9774999999999998    0.4018999999999999 # O55
  0.6816999999999999    0.4775000000000000    0.9019000000000001 # O56
  0.9019000000000001    0.1817000000000000    0.9774999999999998 # O57
  0.9018999999999997    0.6816999999999999    0.4775000000000000 # O58
  0.4018999999999999    0.1817000000000000    0.4775000000000000 # O59
  0.4019000000000003    0.6817000000000003    0.9774999999999998 # O60
  0.8183000000000001    0.9774999999999998    0.0980999999999999 # O61
  0.8183000000000001    0.4775000000000000    0.5980999999999997 # O62
  0.3183000000000002    0.9774999999999998    0.5980999999999997 # O63
  0.3183000000000002    0.4775000000000000    0.0980999999999999 # O64
  0.8183000000000001    0.0225000000000002    0.9019000000000001 # O65
  0.8183000000000001    0.5225000000000000    0.4018999999999999 # O66
  0.3183000000000002    0.0225000000000002    0.4018999999999999 # O67
  0.3183000000000002    0.5225000000000000    0.9019000000000001 # O68
  0.0980999999999999    0.8183000000000004    0.9774999999999998 # O69
  0.0980999999999999    0.3183000000000002    0.4775000000000000 # O70
  0.5981000000000002    0.8183000000000001    0.4775000000000000 # O71
  0.5981000000000002    0.3183000000000002    0.9774999999999998 # O72
  0.9018999999999997    0.9775000000000003    0.6816999999999999 # O73
  0.9019000000000001    0.4775000000000000    0.1817000000000000 # O74
  0.4018999999999999    0.9774999999999998    0.1817000000000000 # O75
  0.4018999999999999    0.4775000000000000    0.6816999999999999 # O76
  0.0980999999999999    0.0225000000000002    0.6816999999999999 # O77
  0.0980999999999999    0.5225000000000000    0.1817000000000000 # O78
  0.5980999999999997    0.0225000000000002    0.1817000000000000 # O79
  0.5981000000000002    0.5225000000000000    0.6816999999999999 # O80
  0.0225000000000002    0.8183000000000001    0.4018999999999999 # O81
  0.0225000000000002    0.3183000000000002    0.9018999999999997 # O82
  0.5225000000000000    0.8183000000000004    0.9019000000000001 # O83
  0.5225000000000000    0.3183000000000002    0.4018999999999999 # O84
  0.0225000000000002    0.1817000000000000    0.5980999999999997 # O85
  0.0225000000000002    0.6816999999999999    0.0980999999999999 # O86
  0.5225000000000000    0.1817000000000000    0.0980999999999999 # O87
  0.5225000000000000    0.6816999999999999    0.5980999999999997 # O88
  0.8183000000000001    0.0980999999999999    0.4775000000000000 # O89
  0.8183000000000001    0.5981000000000002    0.9774999999999998 # O90
  0.3183000000000002    0.0980999999999999    0.9774999999999998 # O91
  0.3183000000000002    0.5981000000000002    0.4775000000000000 # O92
  0.1817000000000000    0.0980999999999999    0.5225000000000000 # O93
  0.1817000000000000    0.5980999999999997    0.0225000000000002 # O94
  0.6816999999999999    0.0980999999999999    0.0225000000000002 # O95
  0.6816999999999999    0.5981000000000002    0.5225000000000000 # O96
  0.2500000000000001    0.2500000000000001    0.2500000000000001 # Cl1
  0.2500000000000001    0.7500000000000004    0.7500000000000000 # Cl2
  0.7500000000000000    0.2500000000000001    0.7500000000000000 # Cl3
  0.7500000000000000    0.7500000000000000    0.2500000000000001 # Cl4
  0.2500000000000001    0.7500000000000000    0.2500000000000001 # Cl5
  0.2500000000000001    0.2500000000000001    0.7500000000000000 # Cl6
  0.7500000000000000    0.7500000000000004    0.7500000000000000 # Cl7
  0.7500000000000000    0.2500000000000001    0.2500000000000001 # Cl8
