$cell vectors
1.0
 18.7499911773417942    0.0000000000000000    0.0000000000000000
  0.0000000000000000   18.7499911773417942    0.0000000000000000
  0.0000000000000000    0.0000000000000000   18.7499911773417942
 80 352
Direct
  0.9139999999999999    0.9140000000000004    0.9139999999999999 # Si1
  0.6649999999999998    0.6649999999999998    0.6649999999999998 # Si2
  0.3220000000000000    0.0000000000000000    0.0000000000000000 # Si3
  0.0720000000000001    0.2500000000000002    0.2499999999999999 # Si4
  0.9139999999999999    0.4140000000000003    0.4140000000000003 # Si5
  0.6649999999999998    0.1650000000000001    0.1650000000000001 # Si6
  0.3220000000000000    0.5000000000000001    0.5000000000000001 # Si7
  0.0720000000000001    0.7500000000000000    0.7500000000000000 # Si8
  0.4140000000000003    0.9139999999999999    0.4140000000000003 # Si9
  0.1650000000000001    0.6649999999999998    0.1650000000000001 # Si10
  0.8220000000000001    0.0000000000000000    0.5000000000000001 # Si11
  0.5719999999999998    0.2500000000000002    0.7500000000000000 # Si12
  0.4140000000000003    0.4140000000000003    0.9139999999999999 # Si13
  0.1650000000000001    0.1650000000000001    0.6649999999999998 # Si14
  0.8220000000000001    0.5000000000000001    0.0000000000000000 # Si15
  0.5719999999999998    0.7500000000000000    0.2499999999999999 # Si16
  0.0000000000000000    0.3220000000000000    0.0000000000000000 # Si17
  0.2499999999999999    0.0720000000000001    0.2499999999999999 # Si18
  0.0000000000000000    0.8220000000000001    0.5000000000000001 # Si19
  0.2500000000000002    0.5720000000000002    0.7500000000000000 # Si20
  0.5000000000000001    0.3220000000000000    0.5000000000000001 # Si21
  0.7500000000000000    0.0720000000000001    0.7500000000000000 # Si22
  0.5000000000000001    0.8220000000000001    0.0000000000000000 # Si23
  0.7500000000000000    0.5719999999999998    0.2499999999999999 # Si24
  0.0000000000000000    0.0000000000000000    0.3220000000000000 # Si25
  0.2499999999999999    0.2499999999999999    0.0720000000000001 # Si26
  0.0000000000000000    0.5000000000000001    0.8220000000000001 # Si27
  0.2500000000000002    0.7500000000000000    0.5719999999999998 # Si28
  0.5000000000000001    0.0000000000000000    0.8220000000000001 # Si29
  0.7500000000000000    0.2500000000000002    0.5719999999999998 # Si30
  0.5000000000000001    0.5000000000000001    0.3220000000000000 # Si31
  0.7500000000000000    0.7500000000000000    0.0720000000000001 # Si32
  0.0860000000000002    0.0860000000000002    0.9139999999999999 # Si33
  0.3349999999999999    0.3349999999999999    0.6649999999999998 # Si34
  0.0860000000000002    0.5859999999999999    0.4140000000000003 # Si35
  0.3349999999999999    0.8350000000000000    0.1650000000000001 # Si36
  0.5859999999999999    0.0859999999999999    0.4140000000000003 # Si37
  0.8350000000000000    0.3349999999999999    0.1650000000000001 # Si38
  0.5859999999999999    0.5859999999999999    0.9139999999999999 # Si39
  0.8350000000000000    0.8350000000000000    0.6649999999999998 # Si40
  0.9139999999999999    0.0859999999999999    0.0859999999999999 # Si41
  0.6649999999999998    0.3349999999999999    0.3349999999999999 # Si42
  0.0000000000000000    0.6779999999999999    0.0000000000000000 # Si43
  0.2500000000000002    0.9280000000000002    0.7500000000000000 # Si44
  0.9139999999999999    0.5859999999999999    0.5859999999999999 # Si45
  0.6650000000000001    0.8350000000000000    0.8350000000000000 # Si46
  0.0000000000000000    0.1780000000000001    0.5000000000000001 # Si47
  0.2500000000000002    0.4280000000000000    0.2499999999999999 # Si48
  0.4140000000000003    0.0860000000000002    0.5859999999999999 # Si49
  0.1650000000000001    0.3349999999999999    0.8350000000000000 # Si50
  0.5000000000000001    0.6780000000000002    0.5000000000000001 # Si51
  0.7500000000000000    0.9280000000000002    0.2499999999999999 # Si52
  0.4140000000000003    0.5859999999999999    0.0859999999999999 # Si53
  0.1650000000000001    0.8350000000000000    0.3349999999999999 # Si54
  0.5000000000000001    0.1780000000000001    0.0000000000000000 # Si55
  0.7500000000000000    0.4280000000000000    0.7500000000000000 # Si56
  0.0860000000000002    0.9139999999999999    0.0859999999999999 # Si57
  0.3349999999999999    0.6649999999999998    0.3349999999999999 # Si58
  0.0000000000000000    0.0000000000000000    0.6779999999999999 # Si59
  0.7500000000000000    0.2500000000000002    0.9280000000000002 # Si60
  0.0860000000000002    0.4140000000000003    0.5859999999999999 # Si61
  0.3349999999999999    0.1650000000000001    0.8350000000000000 # Si62
  0.0000000000000000    0.5000000000000001    0.1780000000000001 # Si63
  0.7500000000000000    0.7500000000000000    0.4280000000000000 # Si64
  0.5859999999999999    0.9139999999999999    0.5859999999999999 # Si65
  0.8350000000000000    0.6649999999999998    0.8350000000000000 # Si66
  0.5000000000000001    0.0000000000000000    0.1780000000000001 # Si67
  0.2500000000000002    0.2500000000000002    0.4280000000000000 # Si68
  0.5859999999999999    0.4140000000000003    0.0859999999999999 # Si69
  0.8350000000000000    0.1650000000000001    0.3349999999999999 # Si70
  0.5000000000000001    0.5000000000000001    0.6779999999999999 # Si71
  0.2500000000000002    0.7500000000000000    0.9280000000000002 # Si72
  0.6779999999999999    0.0000000000000000    0.0000000000000000 # Si73
  0.9280000000000002    0.7500000000000000    0.2499999999999999 # Si74
  0.6779999999999999    0.5000000000000001    0.5000000000000001 # Si75
  0.9280000000000002    0.2500000000000002    0.7500000000000000 # Si76
  0.1780000000000001    0.0000000000000000    0.5000000000000001 # Si77
  0.4280000000000000    0.7500000000000000    0.7500000000000000 # Si78
  0.1780000000000001    0.5000000000000001    0.0000000000000000 # Si79
  0.4280000000000000    0.2500000000000002    0.2499999999999999 # Si80
  0.0000000000000000    0.0000000000000000    0.0000000000000000 # Li1
  0.5000000000000001    0.5000000000000001    0.5000000000000001 # Li2
  0.2499999999999999    0.2500000000000002    0.2499999999999999 # Li3
  0.7500000000000000    0.7500000000000000    0.7500000000000000 # Li4
  0.0800000000000001    0.0800000000000001    0.0800000000000001 # Li5
  0.1669999999999999    0.1669999999999999    0.1669999999999999 # Li6
  0.3300000000000000    0.3300000000000000    0.3300000000000000 # Li7
  0.4200000000000002    0.4199999999999999    0.4199999999999999 # Li8
  0.5829999999999999    0.5830000000000002    0.5829999999999999 # Li9
  0.8330000000000000    0.8330000000000000    0.8330000000000000 # Li10
  0.1669999999999999    0.0000000000000000    0.0000000000000000 # Li11
  0.5829999999999999    0.2500000000000002    0.2499999999999999 # Li12
  0.8390000000000000    0.1670000000000002    0.9950000000000001 # Li13
  0.6580000000000000    0.1670000000000002    0.9970000000000000 # Li14
  0.2499999999999999    0.0870000000000000    0.0870000000000000 # Li15
  0.7500000000000000    0.0830000000000000    0.0830000000000000 # Li16
  0.0000000000000000    0.5000000000000001    0.5000000000000001 # Li17
  0.5000000000000001    0.0000000000000000    0.0000000000000000 # Li18
  0.2500000000000002    0.7500000000000000    0.7500000000000000 # Li19
  0.7500000000000000    0.2500000000000002    0.2499999999999999 # Li20
  0.0800000000000001    0.5800000000000000    0.5800000000000000 # Li21
  0.1670000000000002    0.6669999999999998    0.6669999999999998 # Li22
  0.3300000000000000    0.8300000000000002    0.8300000000000002 # Li23
  0.4200000000000002    0.9199999999999998    0.9199999999999998 # Li24
  0.5829999999999999    0.0830000000000000    0.0830000000000000 # Li25
  0.8330000000000000    0.3329999999999999    0.3329999999999999 # Li26
  0.1670000000000002    0.5000000000000001    0.5000000000000001 # Li27
  0.5829999999999999    0.7500000000000000    0.7500000000000000 # Li28
  0.8390000000000000    0.6669999999999998    0.4950000000000003 # Li29
  0.6580000000000000    0.6669999999999998    0.4970000000000000 # Li30
  0.2500000000000002    0.5870000000000001    0.5869999999999999 # Li31
  0.7500000000000000    0.5830000000000002    0.5829999999999999 # Li32
  0.5000000000000001    0.0000000000000000    0.5000000000000001 # Li33
  0.0000000000000000    0.5000000000000001    0.0000000000000000 # Li34
  0.7500000000000000    0.2500000000000002    0.7500000000000000 # Li35
  0.2500000000000002    0.7500000000000000    0.2499999999999999 # Li36
  0.5800000000000000    0.0800000000000001    0.5800000000000000 # Li37
  0.6669999999999998    0.1670000000000002    0.6669999999999998 # Li38
  0.8300000000000002    0.3300000000000000    0.8300000000000002 # Li39
  0.9199999999999998    0.4200000000000002    0.9199999999999998 # Li40
  0.0830000000000000    0.5829999999999999    0.0830000000000000 # Li41
  0.3329999999999999    0.8330000000000000    0.3329999999999999 # Li42
  0.6669999999999998    0.0000000000000000    0.5000000000000001 # Li43
  0.0830000000000000    0.2500000000000002    0.7500000000000000 # Li44
  0.3390000000000000    0.1670000000000002    0.4950000000000003 # Li45
  0.1580000000000000    0.1670000000000002    0.4970000000000000 # Li46
  0.7500000000000000    0.0870000000000000    0.5869999999999999 # Li47
  0.2500000000000002    0.0830000000000000    0.5829999999999999 # Li48
  0.5000000000000001    0.5000000000000001    0.0000000000000000 # Li49
  0.0000000000000000    0.0000000000000000    0.5000000000000001 # Li50
  0.7500000000000000    0.7500000000000000    0.2499999999999999 # Li51
  0.2500000000000002    0.2500000000000002    0.7500000000000000 # Li52
  0.5800000000000000    0.5800000000000000    0.0800000000000001 # Li53
  0.6669999999999998    0.6669999999999998    0.1669999999999999 # Li54
  0.8300000000000002    0.8300000000000002    0.3300000000000000 # Li55
  0.9199999999999998    0.9199999999999998    0.4199999999999999 # Li56
  0.0830000000000000    0.0830000000000000    0.5829999999999999 # Li57
  0.3329999999999999    0.3330000000000002    0.8330000000000000 # Li58
  0.6669999999999998    0.5000000000000001    0.0000000000000000 # Li59
  0.0830000000000000    0.7500000000000000    0.2499999999999999 # Li60
  0.3390000000000000    0.6669999999999998    0.9950000000000001 # Li61
  0.1580000000000000    0.6669999999999998    0.9970000000000000 # Li62
  0.7500000000000000    0.5869999999999999    0.0870000000000000 # Li63
  0.2500000000000002    0.5829999999999999    0.0830000000000000 # Li64
  0.0000000000000000    0.1669999999999999    0.0000000000000000 # Li65
  0.2500000000000002    0.5829999999999999    0.2499999999999999 # Li66
  0.9950000000000001    0.8390000000000000    0.1669999999999999 # Li67
  0.9970000000000000    0.6580000000000000    0.1669999999999999 # Li68
  0.0870000000000000    0.2499999999999999    0.0870000000000000 # Li69
  0.0830000000000000    0.7500000000000000    0.0830000000000000 # Li70
  0.0000000000000000    0.6669999999999998    0.5000000000000001 # Li71
  0.2500000000000002    0.0830000000000000    0.7500000000000000 # Li72
  0.9950000000000001    0.3390000000000000    0.6669999999999998 # Li73
  0.9970000000000000    0.1580000000000000    0.6669999999999998 # Li74
  0.0870000000000000    0.7500000000000000    0.5869999999999999 # Li75
  0.0830000000000000    0.2500000000000002    0.5829999999999999 # Li76
  0.5000000000000001    0.1670000000000002    0.5000000000000001 # Li77
  0.7500000000000000    0.5830000000000002    0.7500000000000000 # Li78
  0.4950000000000003    0.8390000000000000    0.6669999999999998 # Li79
  0.4970000000000000    0.6580000000000000    0.6669999999999998 # Li80
  0.5869999999999999    0.2500000000000002    0.5869999999999999 # Li81
  0.5829999999999999    0.7500000000000000    0.5829999999999999 # Li82
  0.5000000000000001    0.6669999999999998    0.0000000000000000 # Li83
  0.7500000000000000    0.0830000000000000    0.2499999999999999 # Li84
  0.4950000000000003    0.3390000000000000    0.1669999999999999 # Li85
  0.4970000000000000    0.1580000000000000    0.1669999999999999 # Li86
  0.5869999999999999    0.7500000000000000    0.0870000000000000 # Li87
  0.5829999999999999    0.2499999999999999    0.0830000000000000 # Li88
  0.0000000000000000    0.0000000000000000    0.1669999999999999 # Li89
  0.2500000000000002    0.2500000000000002    0.5829999999999999 # Li90
  0.1670000000000002    0.9950000000000001    0.8390000000000000 # Li91
  0.1670000000000002    0.9970000000000000    0.6580000000000000 # Li92
  0.0870000000000000    0.0870000000000000    0.2499999999999999 # Li93
  0.0830000000000000    0.0830000000000000    0.7500000000000000 # Li94
  0.0000000000000000    0.5000000000000001    0.6669999999999998 # Li95
  0.2500000000000002    0.7500000000000000    0.0830000000000000 # Li96
  0.1670000000000002    0.4950000000000003    0.3390000000000000 # Li97
  0.1669999999999999    0.4970000000000000    0.1580000000000000 # Li98
  0.0870000000000000    0.5870000000000001    0.7500000000000000 # Li99
  0.0830000000000000    0.5829999999999999    0.2499999999999999 # Li100
  0.5000000000000001    0.0000000000000000    0.6669999999999998 # Li101
  0.7500000000000000    0.2499999999999999    0.0830000000000000 # Li102
  0.6669999999999998    0.9950000000000001    0.3390000000000000 # Li103
  0.6669999999999998    0.9970000000000000    0.1580000000000000 # Li104
  0.5869999999999999    0.0870000000000000    0.7500000000000000 # Li105
  0.5829999999999999    0.0830000000000000    0.2499999999999999 # Li106
  0.5000000000000001    0.5000000000000001    0.1669999999999999 # Li107
  0.7500000000000000    0.7500000000000000    0.5829999999999999 # Li108
  0.6669999999999998    0.4950000000000003    0.8390000000000000 # Li109
  0.6669999999999998    0.4970000000000000    0.6580000000000000 # Li110
  0.5869999999999999    0.5869999999999999    0.2499999999999999 # Li111
  0.5829999999999999    0.5830000000000002    0.7500000000000000 # Li112
  0.9199999999999998    0.9199999999999998    0.0800000000000001 # Li113
  0.8330000000000000    0.8330000000000000    0.1669999999999999 # Li114
  0.6699999999999998    0.6699999999999998    0.3300000000000000 # Li115
  0.5800000000000000    0.5800000000000000    0.4199999999999999 # Li116
  0.4170000000000001    0.4170000000000001    0.5829999999999999 # Li117
  0.1670000000000002    0.1670000000000002    0.8330000000000000 # Li118
  0.8330000000000000    0.0050000000000002    0.8390000000000000 # Li119
  0.8330000000000000    0.0030000000000002    0.6580000000000000 # Li120
  0.9130000000000000    0.9130000000000000    0.2499999999999999 # Li121
  0.9170000000000000    0.9170000000000000    0.7500000000000000 # Li122
  0.9199999999999998    0.4199999999999999    0.5800000000000000 # Li123
  0.8330000000000000    0.3330000000000002    0.6669999999999998 # Li124
  0.6699999999999998    0.1700000000000000    0.8300000000000002 # Li125
  0.5800000000000002    0.0800000000000001    0.9199999999999998 # Li126
  0.4170000000000001    0.9170000000000000    0.0830000000000000 # Li127
  0.1670000000000002    0.6669999999999998    0.3329999999999999 # Li128
  0.8330000000000000    0.5049999999999999    0.3390000000000000 # Li129
  0.8330000000000000    0.5029999999999999    0.1580000000000000 # Li130
  0.9130000000000000    0.4130000000000000    0.7500000000000000 # Li131
  0.9170000000000000    0.4170000000000001    0.2499999999999999 # Li132
  0.4200000000000002    0.9199999999999998    0.5800000000000000 # Li133
  0.3330000000000002    0.8330000000000000    0.6669999999999998 # Li134
  0.1700000000000000    0.6699999999999998    0.8300000000000002 # Li135
  0.0800000000000001    0.5800000000000002    0.9199999999999998 # Li136
  0.9170000000000000    0.4170000000000001    0.0830000000000000 # Li137
  0.6669999999999998    0.1670000000000002    0.3329999999999999 # Li138
  0.3329999999999999    0.0050000000000002    0.3390000000000000 # Li139
  0.3329999999999999    0.0030000000000002    0.1580000000000000 # Li140
  0.4130000000000000    0.9130000000000000    0.7500000000000000 # Li141
  0.4170000000000001    0.9170000000000000    0.2499999999999999 # Li142
  0.4199999999999999    0.4199999999999999    0.0800000000000001 # Li143
  0.3329999999999999    0.3329999999999999    0.1669999999999999 # Li144
  0.1700000000000000    0.1700000000000000    0.3300000000000000 # Li145
  0.0800000000000001    0.0800000000000001    0.4199999999999999 # Li146
  0.9170000000000000    0.9170000000000000    0.5829999999999999 # Li147
  0.6669999999999998    0.6669999999999998    0.8330000000000000 # Li148
  0.3330000000000002    0.5049999999999999    0.8390000000000000 # Li149
  0.3330000000000002    0.5029999999999999    0.6580000000000000 # Li150
  0.4130000000000000    0.4130000000000000    0.2499999999999999 # Li151
  0.4170000000000001    0.4170000000000001    0.7500000000000000 # Li152
  0.0800000000000001    0.9199999999999998    0.9199999999999998 # Li153
  0.1670000000000002    0.8330000000000000    0.8330000000000000 # Li154
  0.3300000000000000    0.6699999999999998    0.6699999999999998 # Li155
  0.4200000000000002    0.5800000000000002    0.5800000000000000 # Li156
  0.5829999999999999    0.4170000000000001    0.4170000000000001 # Li157
  0.8330000000000000    0.1670000000000002    0.1669999999999999 # Li158
  0.0000000000000000    0.8330000000000000    0.0000000000000000 # Li159
  0.2500000000000002    0.4170000000000001    0.7500000000000000 # Li160
  0.9950000000000001    0.1610000000000001    0.8330000000000000 # Li161
  0.9970000000000000    0.3420000000000001    0.8330000000000000 # Li162
  0.0870000000000000    0.7500000000000000    0.9130000000000000 # Li163
  0.0830000000000000    0.2500000000000002    0.9170000000000000 # Li164
  0.0800000000000001    0.4199999999999999    0.4199999999999999 # Li165
  0.1670000000000002    0.3329999999999999    0.3329999999999999 # Li166
  0.3300000000000000    0.1700000000000000    0.1700000000000000 # Li167
  0.4199999999999999    0.0800000000000001    0.0800000000000001 # Li168
  0.5830000000000002    0.9170000000000000    0.9170000000000000 # Li169
  0.8330000000000000    0.6669999999999998    0.6669999999999998 # Li170
  0.0000000000000000    0.3329999999999999    0.5000000000000001 # Li171
  0.2500000000000002    0.9170000000000000    0.2499999999999999 # Li172
  0.9950000000000001    0.6609999999999999    0.3329999999999999 # Li173
  0.9970000000000000    0.8420000000000000    0.3329999999999999 # Li174
  0.0870000000000000    0.2500000000000002    0.4130000000000000 # Li175
  0.0830000000000000    0.7500000000000000    0.4170000000000001 # Li176
  0.5800000000000000    0.9199999999999998    0.4199999999999999 # Li177
  0.6669999999999998    0.8330000000000000    0.3329999999999999 # Li178
  0.8300000000000002    0.6699999999999998    0.1700000000000000 # Li179
  0.9199999999999998    0.5800000000000000    0.0800000000000001 # Li180
  0.0830000000000000    0.4170000000000001    0.9170000000000000 # Li181
  0.3329999999999999    0.1670000000000002    0.6669999999999998 # Li182
  0.5000000000000001    0.8330000000000000    0.5000000000000001 # Li183
  0.7500000000000000    0.4170000000000001    0.2499999999999999 # Li184
  0.4950000000000003    0.1610000000000001    0.3329999999999999 # Li185
  0.4970000000000000    0.3420000000000001    0.3329999999999999 # Li186
  0.5869999999999999    0.7500000000000000    0.4130000000000000 # Li187
  0.5829999999999999    0.2500000000000002    0.4170000000000001 # Li188
  0.5800000000000000    0.4200000000000002    0.9199999999999998 # Li189
  0.6669999999999998    0.3330000000000002    0.8330000000000000 # Li190
  0.8300000000000002    0.1700000000000000    0.6699999999999998 # Li191
  0.9199999999999998    0.0800000000000001    0.5800000000000000 # Li192
  0.0830000000000000    0.9170000000000000    0.4170000000000001 # Li193
  0.3329999999999999    0.6669999999999998    0.1669999999999999 # Li194
  0.5000000000000001    0.3329999999999999    0.0000000000000000 # Li195
  0.7500000000000000    0.9170000000000000    0.7500000000000000 # Li196
  0.4950000000000003    0.6610000000000001    0.8330000000000000 # Li197
  0.4970000000000000    0.8420000000000003    0.8330000000000000 # Li198
  0.5870000000000001    0.2500000000000002    0.9130000000000000 # Li199
  0.5830000000000002    0.7500000000000000    0.9170000000000000 # Li200
  0.9199999999999998    0.0800000000000001    0.9199999999999998 # Li201
  0.8330000000000000    0.1670000000000002    0.8330000000000000 # Li202
  0.6699999999999998    0.3300000000000000    0.6699999999999998 # Li203
  0.5800000000000000    0.4199999999999999    0.5800000000000000 # Li204
  0.4170000000000001    0.5829999999999999    0.4170000000000001 # Li205
  0.1670000000000002    0.8330000000000000    0.1669999999999999 # Li206
  0.0000000000000000    0.0000000000000000    0.8330000000000000 # Li207
  0.7500000000000000    0.2500000000000002    0.4170000000000001 # Li208
  0.8330000000000000    0.9950000000000001    0.1610000000000001 # Li209
  0.8330000000000000    0.9970000000000000    0.3420000000000001 # Li210
  0.9130000000000000    0.0870000000000000    0.7500000000000000 # Li211
  0.9170000000000000    0.0830000000000000    0.2499999999999999 # Li212
  0.9199999999999998    0.5800000000000000    0.4199999999999999 # Li213
  0.8330000000000000    0.6669999999999998    0.3329999999999999 # Li214
  0.6699999999999998    0.8300000000000002    0.1700000000000000 # Li215
  0.5800000000000002    0.9199999999999998    0.0800000000000001 # Li216
  0.4170000000000001    0.0830000000000000    0.9170000000000000 # Li217
  0.1670000000000002    0.3330000000000002    0.6669999999999998 # Li218
  0.0000000000000000    0.5000000000000001    0.3329999999999999 # Li219
  0.7500000000000000    0.7500000000000000    0.9170000000000000 # Li220
  0.8330000000000000    0.4950000000000003    0.6609999999999999 # Li221
  0.8330000000000000    0.4970000000000000    0.8420000000000000 # Li222
  0.9130000000000000    0.5869999999999999    0.2499999999999999 # Li223
  0.9170000000000000    0.5830000000000002    0.7500000000000000 # Li224
  0.4199999999999999    0.0800000000000001    0.4199999999999999 # Li225
  0.3329999999999999    0.1670000000000002    0.3329999999999999 # Li226
  0.1700000000000000    0.3300000000000000    0.1700000000000000 # Li227
  0.0800000000000001    0.4199999999999999    0.0800000000000001 # Li228
  0.9170000000000000    0.5830000000000002    0.9170000000000000 # Li229
  0.6669999999999998    0.8330000000000000    0.6669999999999998 # Li230
  0.5000000000000001    0.0000000000000000    0.3329999999999999 # Li231
  0.2500000000000002    0.2500000000000002    0.9170000000000000 # Li232
  0.3330000000000002    0.9950000000000001    0.6609999999999999 # Li233
  0.3330000000000002    0.9970000000000000    0.8420000000000000 # Li234
  0.4130000000000000    0.0870000000000000    0.2499999999999999 # Li235
  0.4170000000000001    0.0830000000000000    0.7500000000000000 # Li236
  0.4200000000000002    0.5800000000000000    0.9199999999999998 # Li237
  0.3330000000000002    0.6669999999999998    0.8330000000000000 # Li238
  0.1700000000000000    0.8300000000000002    0.6699999999999998 # Li239
  0.0800000000000001    0.9199999999999998    0.5800000000000000 # Li240
  0.9170000000000000    0.0830000000000000    0.4170000000000001 # Li241
  0.6669999999999998    0.3329999999999999    0.1669999999999999 # Li242
  0.5000000000000001    0.5000000000000001    0.8330000000000000 # Li243
  0.2500000000000002    0.7500000000000000    0.4170000000000001 # Li244
  0.3329999999999999    0.4950000000000003    0.1610000000000001 # Li245
  0.3329999999999999    0.4970000000000000    0.3420000000000001 # Li246
  0.4130000000000000    0.5870000000000001    0.7500000000000000 # Li247
  0.4170000000000001    0.5829999999999999    0.2499999999999999 # Li248
  0.0049999999999999    0.1610000000000001    0.1669999999999999 # Li249
  0.0030000000000002    0.3420000000000001    0.1669999999999999 # Li250
  0.9130000000000000    0.7500000000000000    0.0870000000000000 # Li251
  0.9170000000000000    0.2499999999999999    0.0830000000000000 # Li252
  0.0050000000000002    0.6610000000000001    0.6669999999999998 # Li253
  0.0030000000000002    0.8420000000000003    0.6669999999999998 # Li254
  0.9130000000000000    0.2500000000000002    0.5869999999999999 # Li255
  0.9170000000000000    0.7500000000000000    0.5829999999999999 # Li256
  0.5049999999999999    0.1610000000000001    0.6669999999999998 # Li257
  0.5029999999999999    0.3420000000000001    0.6669999999999998 # Li258
  0.4130000000000000    0.7500000000000000    0.5869999999999999 # Li259
  0.4170000000000001    0.2500000000000002    0.5829999999999999 # Li260
  0.5049999999999999    0.6609999999999999    0.1669999999999999 # Li261
  0.5029999999999999    0.8420000000000000    0.1669999999999999 # Li262
  0.4130000000000000    0.2499999999999999    0.0870000000000000 # Li263
  0.4170000000000001    0.7500000000000000    0.0830000000000000 # Li264
  0.0050000000000002    0.8390000000000000    0.8330000000000000 # Li265
  0.0030000000000002    0.6580000000000000    0.8330000000000000 # Li266
  0.9130000000000000    0.2500000000000002    0.9130000000000000 # Li267
  0.9170000000000000    0.7500000000000000    0.9170000000000000 # Li268
  0.0050000000000002    0.3390000000000000    0.3329999999999999 # Li269
  0.0030000000000002    0.1580000000000000    0.3329999999999999 # Li270
  0.9130000000000000    0.7500000000000000    0.4130000000000000 # Li271
  0.9170000000000000    0.2500000000000002    0.4170000000000001 # Li272
  0.5049999999999999    0.8390000000000000    0.3329999999999999 # Li273
  0.5029999999999999    0.6580000000000000    0.3329999999999999 # Li274
  0.4130000000000000    0.2500000000000002    0.4130000000000000 # Li275
  0.4170000000000001    0.7500000000000000    0.4170000000000001 # Li276
  0.5049999999999999    0.3390000000000000    0.8330000000000000 # Li277
  0.5029999999999999    0.1580000000000000    0.8330000000000000 # Li278
  0.4130000000000000    0.7500000000000000    0.9130000000000000 # Li279
  0.4170000000000001    0.2500000000000002    0.9170000000000000 # Li280
  0.1669999999999999    0.0049999999999999    0.1610000000000001 # Li281
  0.1669999999999999    0.0030000000000002    0.3420000000000001 # Li282
  0.0870000000000000    0.9130000000000000    0.7500000000000000 # Li283
  0.0830000000000000    0.9170000000000000    0.2499999999999999 # Li284
  0.1670000000000002    0.5049999999999999    0.6609999999999999 # Li285
  0.1670000000000002    0.5029999999999999    0.8420000000000000 # Li286
  0.0870000000000000    0.4130000000000000    0.2499999999999999 # Li287
  0.0830000000000000    0.4170000000000001    0.7500000000000000 # Li288
  0.6669999999999998    0.0050000000000002    0.6609999999999999 # Li289
  0.6669999999999998    0.0030000000000002    0.8420000000000000 # Li290
  0.5870000000000001    0.9130000000000000    0.2499999999999999 # Li291
  0.5830000000000002    0.9170000000000000    0.7500000000000000 # Li292
  0.6669999999999998    0.5049999999999999    0.1610000000000001 # Li293
  0.6669999999999998    0.5029999999999999    0.3420000000000001 # Li294
  0.5869999999999999    0.4130000000000000    0.7500000000000000 # Li295
  0.5829999999999999    0.4170000000000001    0.2499999999999999 # Li296
  0.8330000000000000    0.0000000000000000    0.0000000000000000 # Li297
  0.4170000000000001    0.7500000000000000    0.2499999999999999 # Li298
  0.1610000000000001    0.8330000000000000    0.9950000000000001 # Li299
  0.3420000000000001    0.8330000000000000    0.9970000000000000 # Li300
  0.7500000000000000    0.9130000000000000    0.0870000000000000 # Li301
  0.2500000000000002    0.9170000000000000    0.0830000000000000 # Li302
  0.8330000000000000    0.5000000000000001    0.5000000000000001 # Li303
  0.4170000000000001    0.2500000000000002    0.7500000000000000 # Li304
  0.1610000000000001    0.3329999999999999    0.4950000000000003 # Li305
  0.3420000000000001    0.3329999999999999    0.4970000000000000 # Li306
  0.7500000000000000    0.4130000000000000    0.5869999999999999 # Li307
  0.2500000000000002    0.4170000000000001    0.5829999999999999 # Li308
  0.3329999999999999    0.0000000000000000    0.5000000000000001 # Li309
  0.9170000000000000    0.7500000000000000    0.7500000000000000 # Li310
  0.6610000000000001    0.8330000000000000    0.4950000000000003 # Li311
  0.8420000000000003    0.8330000000000000    0.4970000000000000 # Li312
  0.2500000000000002    0.9130000000000000    0.5869999999999999 # Li313
  0.7500000000000000    0.9170000000000000    0.5829999999999999 # Li314
  0.3329999999999999    0.5000000000000001    0.0000000000000000 # Li315
  0.9170000000000000    0.2500000000000002    0.2499999999999999 # Li316
  0.6610000000000001    0.3330000000000002    0.9950000000000001 # Li317
  0.8420000000000003    0.3330000000000002    0.9970000000000000 # Li318
  0.2500000000000002    0.4130000000000000    0.0870000000000000 # Li319
  0.7500000000000000    0.4170000000000001    0.0830000000000000 # Li320
  0.8390000000000000    0.8330000000000000    0.0049999999999999 # Li321
  0.6580000000000000    0.8330000000000000    0.0029999999999999 # Li322
  0.2500000000000002    0.9130000000000000    0.9130000000000000 # Li323
  0.7500000000000002    0.9170000000000000    0.9170000000000000 # Li324
  0.8390000000000000    0.3329999999999999    0.5049999999999999 # Li325
  0.6580000000000000    0.3329999999999999    0.5029999999999999 # Li326
  0.2500000000000002    0.4130000000000000    0.4130000000000000 # Li327
  0.7500000000000000    0.4170000000000001    0.4170000000000001 # Li328
  0.3390000000000000    0.8330000000000000    0.5049999999999999 # Li329
  0.1580000000000000    0.8330000000000000    0.5029999999999999 # Li330