$cell vectors
1.0
  8.3199960850924626    0.0000000000000000    0.0000000000000000
  0.0000000000000000    8.3199960850924626    0.0000000000000000
  0.0000000000000000    0.0000000000000000    8.3199960850924626
 7 32 14
Direct
  0.3560000000000004    0.3560000000000004    0.3560000000000004 # W1
  0.5000000000000000    0.0000000000000000    0.0000000000000000 # W2
  0.3560000000000004    0.6440000000000002    0.6440000000000002 # W3
  0.0000000000000000    0.5000000000000000    0.0000000000000000 # W4
  0.6440000000000002    0.6440000000000002    0.3560000000000004 # W5
  0.6440000000000002    0.3560000000000004    0.6440000000000002 # W6
  0.0000000000000000    0.0000000000000000    0.5000000000000000 # W7
  0.1250000000000000    0.1250000000000000    0.6250000000000001 # O1
  0.3679999999999998    0.3679999999999998    0.1320000000000003 # O2
  0.6200000000000003    0.6200000000000003    0.6200000000000003 # O3
  0.1299999999999998    0.1299999999999998    0.1299999999999998 # O4
  0.1250000000000000   -0.1250000000000000    0.3750000000000001 # O5
  0.3680000000000004    0.6320000000000002    0.8680000000000005 # O6
  0.6200000000000003    0.3800000000000004    0.3799999999999998 # O7
  0.1300000000000004    0.8700000000000002    0.8700000000000002 # O8
 -0.1250000000000000   -0.1250000000000000    0.6250000000000001 # O9
  0.6320000000000002    0.6320000000000002    0.1320000000000003 # O10
  0.3800000000000004    0.3800000000000004    0.6200000000000003 # O11
  0.8700000000000002    0.8700000000000002    0.1299999999999998 # O12
 -0.1250000000000000    0.1250000000000000    0.3750000000000001 # O13
  0.6320000000000002    0.3680000000000004    0.8680000000000005 # O14
  0.3800000000000004    0.6200000000000003    0.3799999999999998 # O15
  0.8700000000000002    0.1300000000000004    0.8700000000000002 # O16
 -0.1250000000000000    0.6250000000000001   -0.1250000000000000 # O17
  0.6320000000000002    0.1320000000000003    0.6320000000000002 # O18
 -0.1250000000000000    0.3750000000000001    0.1250000000000000 # O19
  0.6320000000000002    0.8680000000000005    0.3679999999999998 # O20
  0.3750000000000001   -0.1250000000000000    0.1250000000000000 # O21
  0.8680000000000005    0.6320000000000002    0.3679999999999998 # O22
  0.6250000000000001   -0.1250000000000000   -0.1250000000000000 # O23
  0.1320000000000003    0.6320000000000002    0.6320000000000002 # O24
  0.6250000000000001    0.1250000000000000    0.1250000000000000 # O25
  0.1320000000000003    0.3680000000000004    0.3679999999999998 # O26
  0.1250000000000000    0.6250000000000001    0.1250000000000000 # O27
  0.3679999999999998    0.1320000000000003    0.3679999999999998 # O28
  0.3750000000000001    0.1250000000000000   -0.1250000000000000 # O29
  0.8680000000000005    0.3680000000000004    0.6320000000000002 # O30
  0.1250000000000000    0.3750000000000001   -0.1250000000000000 # O31
  0.3680000000000004    0.8680000000000005    0.6320000000000002 # O32
  0.2300000000000002    0.0000000000000000    0.0000000000000000 # Li1
  0.2500000000000000    0.2500000000000000    0.2500000000000000 # Li2
  0.5000000000000000    0.5000000000000000    0.0000000000000000 # Li3
  0.5000000000000000    0.5000000000000000    0.5000000000000000 # Li4
  0.0000000000000000    0.7700000000000006    0.0000000000000000 # Li5
  0.2500000000000000    0.7500000000000001    0.7500000000000001 # Li6
  0.7700000000000006    0.0000000000000000    0.0000000000000000 # Li7
  0.7500000000000001    0.7500000000000001    0.2500000000000000 # Li8
  0.0000000000000000    0.2300000000000002    0.0000000000000000 # Li9
  0.7500000000000001    0.2500000000000000    0.7500000000000001 # Li10
  0.5000000000000000    0.0000000000000000    0.5000000000000000 # Li11
  0.0000000000000000    0.0000000000000000    0.2300000000000002 # Li12
  0.0000000000000000    0.5000000000000000    0.5000000000000000 # Li13
  0.0000000000000000    0.0000000000000000    0.7700000000000006 # Li14
