$cell vectors
1.0
 12.6019940702325997    0.0000000000000000    0.0000000000000000
  0.0000000000000000   12.6019940702325997    0.0000000000000000
  0.0000000000000000    0.0000000000000000   12.6019940702325997
 24 16 24 96
Direct
  0.6250000000000002    0.0000000000000000    0.2500000000000001 # Na1
  0.1250000000000001    0.5000000000000002    0.7500000000000000 # Na2
  0.3750000000000002    0.0000000000000000    0.7500000000000000 # Na3
  0.8749999999999999    0.5000000000000002    0.2500000000000001 # Na4
  0.7500000000000000    0.6250000000000002    0.5000000000000002 # Na5
  0.2500000000000001    0.1250000000000001    0.0000000000000000 # Na6
  0.3750000000000002    0.5000000000000002    0.2500000000000001 # Na7
  0.8749999999999999    0.0000000000000000    0.7500000000000000 # Na8
  0.2500000000000001    0.6250000000000002    0.0000000000000000 # Na9
  0.7500000000000000    0.1250000000000001    0.5000000000000002 # Na10
  0.7500000000000000    0.3750000000000002    0.0000000000000000 # Na11
  0.2500000000000001    0.8749999999999999    0.5000000000000002 # Na12
  0.0000000000000000    0.2500000000000001    0.6250000000000002 # Na13
  0.5000000000000002    0.7500000000000000    0.1250000000000001 # Na14
  0.0000000000000000    0.7500000000000000    0.3750000000000002 # Na15
  0.5000000000000002    0.2500000000000001    0.8749999999999999 # Na16
  0.0000000000000000    0.7500000000000000    0.8749999999999999 # Na17
  0.5000000000000002    0.2500000000000001    0.3750000000000002 # Na18
  0.0000000000000000    0.2500000000000001    0.1250000000000001 # Na19
  0.5000000000000002    0.7500000000000000    0.6250000000000002 # Na20
  0.7500000000000000    0.8749999999999999    0.0000000000000000 # Na21
  0.2500000000000001    0.3750000000000002    0.5000000000000002 # Na22
  0.6250000000000002    0.5000000000000002    0.7500000000000000 # Na23
  0.1250000000000001    0.0000000000000000    0.2500000000000001 # Na24
  0.0000000000000000    0.0000000000000000    0.0000000000000000 # Sc1
  0.5000000000000002    0.5000000000000002    0.5000000000000002 # Sc2
  0.2500000000000001    0.2500000000000001    0.7500000000000000 # Sc3
  0.7500000000000000    0.7500000000000000    0.2500000000000001 # Sc4
  0.0000000000000000    0.0000000000000000    0.5000000000000002 # Sc5
  0.5000000000000002    0.5000000000000002    0.0000000000000000 # Sc6
  0.7500000000000000    0.2500000000000001    0.2500000000000001 # Sc7
  0.2500000000000001    0.7500000000000000    0.7500000000000000 # Sc8
  0.5000000000000002    0.0000000000000000    0.0000000000000000 # Sc9
  0.0000000000000000    0.5000000000000002    0.5000000000000002 # Sc10
  0.2500000000000001    0.2500000000000001    0.2500000000000001 # Sc11
  0.7500000000000000    0.7500000000000000    0.7500000000000000 # Sc12
  0.7500000000000000    0.2500000000000001    0.7500000000000000 # Sc13
  0.2500000000000001    0.7500000000000000    0.2500000000000001 # Sc14
  0.0000000000000000    0.5000000000000002    0.0000000000000000 # Sc15
  0.5000000000000002    0.0000000000000000    0.5000000000000002 # Sc16
  0.8749999999999999    0.0000000000000000    0.2500000000000001 # V1
  0.3750000000000002    0.5000000000000002    0.7500000000000000 # V2
  0.1250000000000001    0.0000000000000000    0.7500000000000000 # V3
  0.6250000000000002    0.5000000000000002    0.2500000000000001 # V4
  0.7500000000000000    0.3750000000000002    0.5000000000000002 # V5
  0.2500000000000001    0.8749999999999999    0.0000000000000000 # V6
  0.1250000000000001    0.5000000000000002    0.2500000000000001 # V7
  0.6250000000000002    0.0000000000000000    0.7500000000000000 # V8
  0.2500000000000001    0.3750000000000002    0.0000000000000000 # V9
  0.7500000000000000    0.8749999999999999    0.5000000000000002 # V10
  0.7500000000000000    0.6250000000000002    0.0000000000000000 # V11
  0.2500000000000001    0.1250000000000001    0.5000000000000002 # V12
  0.0000000000000000    0.2500000000000001    0.3750000000000002 # V13
  0.5000000000000002    0.7500000000000000    0.8749999999999999 # V14
  0.0000000000000000    0.7500000000000000    0.6250000000000002 # V15
  0.5000000000000002    0.2500000000000001    0.1250000000000001 # V16
  0.0000000000000000    0.7500000000000000    0.1250000000000001 # V17
  0.5000000000000002    0.2500000000000001    0.6250000000000002 # V18
  0.0000000000000000    0.2500000000000001    0.8749999999999999 # V19
  0.5000000000000002    0.7500000000000000    0.3750000000000002 # V20
  0.7500000000000000    0.1250000000000001    0.0000000000000000 # V21
  0.2500000000000001    0.6250000000000002    0.5000000000000002 # V22
  0.8749999999999999    0.5000000000000002    0.7500000000000000 # V23
  0.3750000000000002    0.0000000000000000    0.2500000000000001 # V24
  0.9590000000000002    0.0484999999999999    0.1539000000000001 # O1
  0.4590000000000000    0.5485000000000001    0.6538999999999998 # O2
  0.0410000000000002    0.9515000000000001    0.8461000000000000 # O3
  0.5410000000000000    0.4515000000000003    0.3461000000000000 # O4
  0.2985000000000000    0.7910000000000000    0.0961000000000000 # O5
  0.0410000000000002    0.4514999999999999    0.1539000000000001 # O6
  0.5410000000000004    0.9515000000000001    0.6538999999999998 # O7
  0.9590000000000002    0.5485000000000001    0.8461000000000000 # O8
  0.2985000000000000    0.2910000000000003    0.9039000000000000 # O9
  0.7985000000000003    0.7910000000000000    0.4039000000000002 # O10
  0.7015000000000000    0.7090000000000001    0.0961000000000000 # O11
  0.2015000000000002    0.2089999999999999    0.5961000000000003 # O12
  0.2089999999999999    0.0961000000000000    0.7985000000000003 # O13
  0.7090000000000001    0.5961000000000003    0.2985000000000000 # O14
  0.7910000000000000    0.9039000000000000    0.2015000000000002 # O15
  0.2909999999999999    0.4039000000000002    0.7015000000000000 # O16
  0.9590000000000002    0.9515000000000001    0.3461000000000000 # O17
  0.4590000000000000    0.4515000000000003    0.8461000000000000 # O18
  0.0410000000000002    0.0484999999999999    0.6538999999999998 # O19
  0.5410000000000000    0.5485000000000001    0.1539000000000001 # O20
  0.7090000000000001    0.4039000000000002    0.2015000000000002 # O21
  0.2090000000000004    0.9039000000000005    0.7015000000000000 # O22
  0.2909999999999999    0.5961000000000003    0.7985000000000003 # O23
  0.7910000000000000    0.0961000000000000    0.2985000000000000 # O24
  0.9039000000000000    0.2985000000000000    0.2909999999999999 # O25
  0.4039000000000002    0.7985000000000003    0.7910000000000000 # O26
  0.0961000000000000    0.7015000000000005    0.7090000000000001 # O27
  0.5961000000000003    0.2015000000000002    0.2089999999999999 # O28
  0.5410000000000000    0.0484999999999999    0.8461000000000000 # O29
  0.0410000000000002    0.5485000000000001    0.3461000000000000 # O30
  0.4590000000000000    0.9515000000000001    0.1539000000000001 # O31
  0.9590000000000002    0.4515000000000003    0.6538999999999998 # O32
  0.0961000000000000    0.7985000000000003    0.2089999999999999 # O33
  0.5961000000000003    0.2985000000000000    0.7090000000000001 # O34
  0.9039000000000000    0.2015000000000002    0.7910000000000000 # O35
  0.4039000000000002    0.7015000000000000    0.2909999999999999 # O36
  0.1539000000000001    0.9590000000000002    0.0484999999999999 # O37
  0.6538999999999998    0.4590000000000000    0.5485000000000001 # O38
  0.8461000000000000    0.0410000000000002    0.9515000000000001 # O39
  0.3461000000000000    0.5410000000000000    0.4514999999999999 # O40
  0.0484999999999999    0.1539000000000001    0.9590000000000002 # O41
  0.5485000000000001    0.6538999999999998    0.4590000000000000 # O42
  0.9515000000000001    0.8461000000000000    0.0410000000000002 # O43
  0.4514999999999999    0.3461000000000000    0.5410000000000000 # O44
  0.9515000000000001    0.3461000000000000    0.9590000000000002 # O45
  0.4515000000000003    0.8461000000000000    0.4590000000000000 # O46
  0.0484999999999999    0.6538999999999998    0.0410000000000002 # O47
  0.5485000000000001    0.1539000000000001    0.5410000000000000 # O48
  0.1539000000000001    0.0410000000000002    0.4514999999999999 # O49
  0.6538999999999998    0.5410000000000000    0.9515000000000001 # O50
  0.8461000000000000    0.9590000000000002    0.5485000000000001 # O51
  0.3461000000000000    0.4590000000000000    0.0484999999999999 # O52
  0.4514999999999999    0.1539000000000001    0.0410000000000002 # O53
  0.9515000000000001    0.6538999999999998    0.5410000000000000 # O54
  0.5485000000000001    0.8461000000000004    0.9590000000000002 # O55
  0.0484999999999999    0.3461000000000000    0.4590000000000000 # O56
  0.8461000000000000    0.5410000000000000    0.0484999999999999 # O57
  0.3461000000000000    0.0410000000000002    0.5485000000000001 # O58
  0.1539000000000001    0.4590000000000000    0.9515000000000001 # O59
  0.6538999999999998    0.9590000000000002    0.4514999999999999 # O60
  0.3461000000000000    0.9590000000000002    0.9515000000000001 # O61
  0.8461000000000000    0.4590000000000000    0.4514999999999999 # O62
  0.6538999999999998    0.0410000000000002    0.0484999999999999 # O63
  0.1539000000000001    0.5410000000000000    0.5485000000000001 # O64
  0.0484999999999999    0.8461000000000000    0.5410000000000000 # O65
  0.5485000000000001    0.3461000000000000    0.0410000000000002 # O66
  0.9515000000000001    0.1539000000000001    0.4590000000000000 # O67
  0.4515000000000003    0.6539000000000003    0.9590000000000002 # O68
  0.7985000000000003    0.2089999999999999    0.0961000000000000 # O69
  0.2985000000000000    0.7090000000000001    0.5961000000000003 # O70
  0.2015000000000002    0.7910000000000005    0.9039000000000000 # O71
  0.7015000000000000    0.2909999999999999    0.4039000000000002 # O72
  0.2015000000000002    0.2909999999999999    0.0961000000000000 # O73
  0.7015000000000000    0.7910000000000000    0.5961000000000003 # O74
  0.7985000000000003    0.7090000000000001    0.9039000000000000 # O75
  0.2985000000000000    0.2089999999999999    0.4039000000000002 # O76
  0.2910000000000003    0.9039000000000000    0.2985000000000000 # O77
  0.7910000000000000    0.4039000000000002    0.7985000000000003 # O78
  0.7090000000000001    0.0961000000000000    0.7015000000000000 # O79
  0.2089999999999999    0.5961000000000003    0.2015000000000002 # O80
  0.2909999999999999    0.0961000000000000    0.2015000000000002 # O81
  0.7910000000000000    0.5961000000000003    0.7015000000000000 # O82
  0.7090000000000001    0.9039000000000005    0.7985000000000003 # O83
  0.2089999999999999    0.4039000000000002    0.2985000000000000 # O84
  0.4039000000000002    0.2015000000000002    0.7090000000000001 # O85
  0.9039000000000000    0.7015000000000000    0.2089999999999999 # O86
  0.5961000000000003    0.7985000000000003    0.2909999999999999 # O87
  0.0961000000000000    0.2985000000000000    0.7910000000000000 # O88
  0.0961000000000000    0.2015000000000002    0.2909999999999999 # O89
  0.5961000000000003    0.7015000000000005    0.7910000000000000 # O90
  0.9039000000000000    0.7985000000000003    0.7090000000000001 # O91
  0.4039000000000002    0.2985000000000000    0.2089999999999999 # O92
  0.7985000000000003    0.2909999999999999    0.5961000000000003 # O93
  0.7015000000000000    0.2090000000000004    0.9039000000000000 # O94
  0.2015000000000002    0.7090000000000001    0.4039000000000002 # O95
  0.4590000000000000    0.0484999999999999    0.3461000000000000 # O96
