$cell vectors
1.0
 12.6999940241195048    0.0000000000000000    0.0000000000000000
  0.0000000000000000   12.6999940241195048    0.0000000000000000
  0.0000000000000000    0.0000000000000000   12.6999940241195048
 8 24 32
Direct
  0.2713000000000002    0.2713000000000002    0.2713000000000002 # Te1
  0.7712999999999997    0.7713000000000001    0.7712999999999997 # Te2
  0.2713000000000002    0.7287000000000001    0.7287000000000001 # Te3
  0.7712999999999997    0.2287000000000002    0.2287000000000002 # Te4
  0.7287000000000001    0.7287000000000001    0.2713000000000002 # Te5
  0.2287000000000002    0.2287000000000002    0.7712999999999997 # Te6
  0.7287000000000001    0.2713000000000002    0.7287000000000001 # Te7
  0.2287000000000002    0.7712999999999997    0.2287000000000002 # Te8
  0.4999999999999999    0.2500000000000000    0.0000000000000000 # K1
  0.0000000000000000    0.0000000000000000    0.2503000000000001 # K2
  0.0000000000000000    0.7499999999999998    0.4999999999999999 # K3
  0.4999999999999999    0.4999999999999999    0.7503000000000001 # K4
  0.2500000000000000    0.4999999999999999    0.0000000000000000 # K5
  0.0000000000000000    0.0000000000000000    0.7497000000000000 # K6
  0.7499999999999998    0.0000000000000000    0.4999999999999999 # K7
  0.4999999999999999    0.4999999999999999    0.2497000000000002 # K8
  0.4999999999999999    0.7499999999999998    0.0000000000000000 # K9
  0.0000000000000000    0.2500000000000000    0.4999999999999999 # K10
  0.7499999999999998    0.4999999999999999    0.0000000000000000 # K11
  0.2500000000000000    0.0000000000000000    0.4999999999999999 # K12
  0.4999999999999999    0.0000000000000000    0.7499999999999998 # K13
  0.0000000000000000    0.2503000000000001    0.0000000000000000 # K14
  0.0000000000000000    0.4999999999999999    0.2500000000000000 # K15
  0.4999999999999999    0.7503000000000001    0.4999999999999999 # K16
  0.4999999999999999    0.0000000000000000    0.2500000000000000 # K17
  0.0000000000000000    0.7497000000000000    0.0000000000000000 # K18
  0.0000000000000000    0.4999999999999999    0.7499999999999998 # K19
  0.4999999999999999    0.2497000000000002    0.4999999999999999 # K20
  0.7497000000000000    0.0000000000000000    0.0000000000000000 # K21
  0.2497000000000002    0.4999999999999999    0.4999999999999999 # K22
  0.2503000000000001    0.0000000000000000    0.0000000000000000 # K23
  0.7503000000000001    0.4999999999999999    0.4999999999999999 # K24
  0.0000000000000000    0.0000000000000000    0.0000000000000000 # S1
  0.4999999999999999    0.4999999999999999    0.0000000000000000 # S2
  0.2500000000000000    0.2500000000000000    0.4536999999999999 # S3
  0.7499999999999998    0.7500000000000002    0.9536999999999999 # S4
  0.2500000000000000    0.7499999999999998    0.5463000000000002 # S5
  0.4999999999999999    0.4999999999999999    0.4999999999999999 # S6
  0.0000000000000000    0.0000000000000000    0.4999999999999999 # S7
  0.7499999999999998    0.2500000000000000    0.0462999999999999 # S8
  0.7499999999999998    0.7499999999999998    0.4536999999999999 # S9
  0.2500000000000000    0.2500000000000000    0.9536999999999999 # S10
  0.7499999999999998    0.2500000000000000    0.5463000000000002 # S11
  0.2500000000000000    0.7499999999999998    0.0462999999999999 # S12
  0.4999999999999999    0.0000000000000000    0.4999999999999999 # S13
  0.7499999999999998    0.4536999999999999    0.7499999999999998 # S14
  0.0000000000000000    0.4999999999999999    0.0000000000000000 # S15
  0.2500000000000000    0.9536999999999999    0.2500000000000000 # S16
  0.7499999999999998    0.5463000000000002    0.2500000000000000 # S17
  0.2500000000000000    0.0462999999999999    0.7499999999999998 # S18
  0.0000000000000000    0.4999999999999999    0.4999999999999999 # S19
  0.5463000000000002    0.7499999999999998    0.2500000000000000 # S20
  0.4999999999999999    0.0000000000000000    0.0000000000000000 # S21
  0.0462999999999999    0.2500000000000000    0.7499999999999998 # S22
  0.4536999999999999    0.7500000000000002    0.7499999999999998 # S23
  0.9536999999999999    0.2500000000000000    0.2500000000000000 # S24
  0.4536999999999999    0.2500000000000000    0.2500000000000000 # S25
  0.9536999999999999    0.7500000000000002    0.7499999999999998 # S26
  0.2500000000000000    0.4536999999999999    0.2500000000000000 # S27
  0.7499999999999998    0.9537000000000004    0.7499999999999998 # S28
  0.5463000000000002    0.2500000000000000    0.7499999999999998 # S29
  0.0462999999999999    0.7499999999999998    0.2500000000000000 # S30
  0.2500000000000000    0.5463000000000002    0.7499999999999998 # S31
  0.7499999999999998    0.0462999999999999    0.2500000000000000 # S32
