$cell vectors
1.0
  9.6379954649184096    0.0000000000000000    0.0000000000000000
  0.0000000000000000    9.6379954649184096    0.0000000000000000
  0.0000000000000000    0.0000000000000000    9.6379954649184096
 16 14 36
Direct
  0.2139999999999998    0.2139999999999998    0.2139999999999998 # Ba1
  0.2890000000000001    0.2890000000000001    0.2890000000000001 # Ba2
  0.7860000000000001    0.7860000000000001    0.7860000000000001 # Ba3
  0.7860000000000001    0.2139999999999998    0.2139999999999998 # Ba4
  0.7109999999999999    0.2890000000000001    0.2890000000000001 # Ba5
  0.2140000000000004    0.7860000000000001    0.7860000000000001 # Ba6
  0.2890000000000001    0.7110000000000004    0.7109999999999999 # Ba7
  0.7860000000000001    0.7860000000000001    0.2139999999999998 # Ba8
  0.7109999999999999    0.7109999999999999    0.2890000000000001 # Ba9
  0.2139999999999998    0.2140000000000004    0.7860000000000001 # Ba10
  0.2890000000000001    0.2890000000000001    0.7109999999999999 # Ba11
  0.2139999999999998    0.7860000000000001    0.2139999999999998 # Ba12
  0.2890000000000001    0.7109999999999999    0.2890000000000001 # Ba13
  0.7860000000000001    0.2140000000000004    0.7860000000000001 # Ba14
  0.7109999999999999    0.2890000000000001    0.7109999999999999 # Ba15
  0.7109999999999999    0.7110000000000004    0.7109999999999999 # Ba16
  0.2480000000000001    0.4999999999999999    0.0000000000000000 # Al1
  0.0000000000000000    0.0000000000000000    0.0000000000000000 # Al2
  0.4999999999999999    0.4999999999999999    0.4999999999999999 # Al3
  0.7520000000000003    0.4999999999999999    0.0000000000000000 # Al4
  0.4999999999999999    0.2480000000000001    0.0000000000000000 # Al5
  0.4999999999999999    0.7520000000000003    0.0000000000000000 # Al6
  0.2480000000000001    0.0000000000000000    0.4999999999999999 # Al7
  0.7520000000000003    0.0000000000000000    0.4999999999999999 # Al8
  0.0000000000000000    0.4999999999999999    0.7520000000000003 # Al9
  0.0000000000000000    0.4999999999999999    0.2480000000000001 # Al10
  0.0000000000000000    0.2480000000000001    0.4999999999999999 # Al11
  0.0000000000000000    0.7520000000000003    0.4999999999999999 # Al12
  0.4999999999999999    0.0000000000000000    0.2480000000000001 # Al13
  0.4999999999999999    0.0000000000000000    0.7520000000000003 # Al14
  0.2180000000000001    0.0000000000000000    0.0000000000000000 # O1
  0.0000000000000000    0.3469999999999999    0.3469999999999999 # O2
  0.4999999999999999    0.1610000000000000    0.1610000000000000 # O3
  0.3170000000000000    0.4999999999999999    0.4999999999999999 # O4
  0.7819999999999998    0.0000000000000000    0.0000000000000000 # O5
  0.0000000000000000    0.6530000000000000    0.6530000000000000 # O6
  0.4999999999999999    0.8389999999999999    0.8389999999999999 # O7
  0.6829999999999999    0.4999999999999999    0.4999999999999999 # O8
  0.6530000000000000    0.0000000000000000    0.3469999999999999 # O9
  0.8389999999999999    0.4999999999999999    0.1610000000000000 # O10
  0.0000000000000000    0.7819999999999998    0.0000000000000000 # O11
  0.3469999999999999    0.0000000000000000    0.6530000000000000 # O12
  0.1610000000000000    0.4999999999999999    0.8389999999999999 # O13
  0.4999999999999999    0.6829999999999999    0.4999999999999999 # O14
  0.0000000000000000    0.6530000000000000    0.3469999999999999 # O15
  0.4999999999999999    0.8389999999999999    0.1610000000000000 # O16
  0.0000000000000000    0.3469999999999999    0.6530000000000000 # O17
  0.4999999999999999    0.1610000000000000    0.8389999999999999 # O18
  0.6530000000000000    0.0000000000000000    0.6530000000000000 # O19
  0.8389999999999999    0.4999999999999999    0.8389999999999999 # O20
  0.0000000000000000    0.0000000000000000    0.7819999999999998 # O21
  0.4999999999999999    0.4999999999999999    0.6829999999999999 # O22
  0.6530000000000000    0.6530000000000000    0.0000000000000000 # O23
  0.8389999999999999    0.8389999999999999    0.4999999999999999 # O24
  0.6530000000000000    0.3469999999999999    0.0000000000000000 # O25
  0.8389999999999999    0.1610000000000000    0.4999999999999999 # O26
  0.3469999999999999    0.6530000000000000    0.0000000000000000 # O27
  0.1610000000000000    0.8389999999999999    0.4999999999999999 # O28
  0.0000000000000000    0.2180000000000001    0.0000000000000000 # O29
  0.3469999999999999    0.0000000000000000    0.3469999999999999 # O30
  0.1610000000000000    0.4999999999999999    0.1610000000000000 # O31
  0.4999999999999999    0.3170000000000000    0.4999999999999999 # O32
  0.0000000000000000    0.0000000000000000    0.2180000000000001 # O33
  0.3469999999999999    0.3469999999999999    0.0000000000000000 # O34
  0.1610000000000000    0.1610000000000000    0.4999999999999999 # O35
  0.4999999999999999    0.4999999999999999    0.3170000000000000 # O36
