$cell vectors
1.0
  6.7149968403120077    0.0000000000000000    0.0000000000000000
  0.0000000000000000    6.7149968403120077    0.0000000000000000
  0.0000000000000000    0.0000000000000000    6.7149968403120077
 4 8
Direct
  0.1249999999999997    0.1249999999999997    0.1249999999999997 # Ba1
  0.6250000000000001    0.3749999999999999    0.8750000000000003 # Ba2
  0.3749999999999999    0.8750000000000003    0.6250000000000001 # Ba3
  0.8750000000000003    0.6250000000000001    0.3749999999999999 # Ba4
  0.4190000000000000    0.4190000000000000    0.4190000000000000 # Si1
  0.3309999999999998    0.6690000000000004    0.1689999999999998 # Si2
  0.0810000000000004    0.5810000000000001    0.9190000000000005 # Si3
  0.1689999999999998    0.3309999999999998    0.6690000000000004 # Si4
  0.9190000000000005    0.0810000000000004    0.5810000000000001 # Si5
  0.6690000000000004    0.1689999999999998    0.3309999999999998 # Si6
  0.5810000000000001    0.9190000000000005    0.0810000000000004 # Si7
  0.8310000000000003    0.8310000000000003    0.8310000000000003 # Si8
