$cell vectors
1.0
  8.1929961448512696    0.0000000000000000    0.0000000000000000
  0.0000000000000000    8.1929961448512696    0.0000000000000000
  0.0000000000000000    0.0000000000000000    8.1929961448512696
 8 4 4 24
Direct
  0.2500000000000000    0.2500000000000000    0.2500000000000000 # Ba1
  0.2500000000000000    0.7500000000000002    0.7500000000000002 # Ba2
  0.7500000000000002    0.2500000000000000    0.7500000000000002 # Ba3
  0.7500000000000002    0.7500000000000002    0.2500000000000000 # Ba4
  0.7500000000000002    0.7500000000000002    0.7500000000000002 # Ba5
  0.7500000000000002    0.2500000000000000    0.2500000000000000 # Ba6
  0.2500000000000000    0.7500000000000002    0.2500000000000000 # Ba7
  0.2500000000000000    0.2500000000000000    0.7500000000000002 # Ba8
  0.0000000000000000    0.0000000000000000    0.0000000000000000 # Mn1
  0.0000000000000000    0.5000000000000000    0.5000000000000000 # Mn2
  0.5000000000000000    0.0000000000000000    0.5000000000000000 # Mn3
  0.5000000000000000    0.5000000000000000    0.0000000000000000 # Mn4
  0.5000000000000000    0.5000000000000000    0.5000000000000000 # W1
  0.5000000000000000    0.0000000000000000    0.0000000000000000 # W2
  0.0000000000000000    0.5000000000000000    0.0000000000000000 # W3
  0.0000000000000000    0.0000000000000000    0.5000000000000000 # W4
  0.2500000000000000    0.0000000000000000    0.0000000000000000 # O1
  0.2500000000000000    0.5000000000000000    0.5000000000000000 # O2
  0.7500000000000002    0.0000000000000000    0.5000000000000000 # O3
  0.7500000000000002    0.5000000000000000    0.0000000000000000 # O4
  0.7500000000000002    0.0000000000000000    0.0000000000000000 # O5
  0.7500000000000002    0.5000000000000000    0.5000000000000000 # O6
  0.2500000000000000    0.0000000000000000    0.5000000000000000 # O7
  0.2500000000000000    0.5000000000000000    0.0000000000000000 # O8
  0.0000000000000000    0.2500000000000000    0.0000000000000000 # O9
  0.0000000000000000    0.7500000000000002    0.5000000000000000 # O10
  0.5000000000000000    0.2500000000000000    0.5000000000000000 # O11
  0.5000000000000000    0.7500000000000002    0.0000000000000000 # O12
  0.0000000000000000    0.7500000000000002    0.0000000000000000 # O13
  0.0000000000000000    0.2500000000000000    0.5000000000000000 # O14
  0.5000000000000000    0.7500000000000002    0.5000000000000000 # O15
  0.5000000000000000    0.2500000000000000    0.0000000000000000 # O16
  0.0000000000000000    0.0000000000000000    0.7500000000000002 # O17
  0.0000000000000000    0.5000000000000000    0.2500000000000000 # O18
  0.5000000000000000    0.0000000000000000    0.2500000000000000 # O19
  0.5000000000000000    0.5000000000000000    0.7500000000000002 # O20
  0.0000000000000000    0.0000000000000000    0.2500000000000000 # O21
  0.0000000000000000    0.5000000000000000    0.7500000000000002 # O22
  0.5000000000000000    0.0000000000000000    0.7500000000000002 # O23
  0.5000000000000000    0.5000000000000000    0.2500000000000000 # O24
