POSCAR generated by cell class
1.0
  9.6887954410148893    0.0000000000000000    0.0000000000000000
  0.0000000000000000    9.6887954410148893    0.0000000000000000
  0.0000000000000000    0.0000000000000000    9.6887954410148893
 24 48
Direct
  0.7500000000000000    0.8823479083333333    0.6176437500000000 # 11
  0.2500000000000000    0.3823479083333334    0.1176437500000000 # 12
  0.1176500000000000    0.7499979083333334    0.6176437500000000 # 13
  0.6176500000000000    0.2499979083333334    0.1176437500000000 # 14
  0.2500000000000000    0.1176479083333333    0.6176437500000000 # 15
  0.7500000000000000    0.6176479083333334    0.1176437500000000 # 16
  0.8823500000000000    0.2499979083333334    0.6176437500000000 # 17
  0.3823500000000001    0.7499979083333334    0.1176437500000000 # 18
  0.7500000000000000    0.3823479083333334    0.8823437500000000 # 19
  0.2500000000000000    0.8823479083333333    0.3823437500000000 # 110
  0.7500000000000000    0.1176479083333333    0.3823437500000000 # 111
  0.2500000000000000    0.6176479083333334    0.8823437500000000 # 112
  0.6176500000000000    0.8823479083333333    0.2499937500000000 # 113
  0.1176500000000000    0.3823479083333334    0.7499937500000000 # 114
  0.3823500000000001    0.8823479083333333    0.7499937500000000 # 115
  0.8823500000000000    0.3823479083333334    0.2499937500000000 # 116
  0.6176500000000000    0.7499979083333334    0.8823437500000000 # 117
  0.1176500000000000    0.2499979083333334    0.3823437500000000 # 118
  0.8823500000000000    0.6176479083333334    0.7499937500000000 # 119
  0.3823500000000001    0.1176479083333333    0.2499937500000000 # 120
  0.1176500000000000    0.6176479083333334    0.2499937500000000 # 121
  0.6176500000000000    0.1176479083333333    0.7499937500000000 # 122
  0.3823500000000001    0.2499979083333334    0.8823437500000000 # 123
  0.8823500000000000    0.7499979083333334    0.3823437500000000 # 124
  0.3733000000000001    0.3732979083333333    0.9999937500000000 # 21
  0.3413500000000000    0.2499979083333334    0.1586437500000000 # 22
  0.8733000000000000    0.8732979083333333    0.4999937500000000 # 23
  0.8413500000000000    0.7499979083333334    0.6586437500000000 # 24
  0.6267000000000000    0.3732979083333333    0.9999937500000000 # 25
  0.7500000000000000    0.3413479083333334    0.1586437500000000 # 26
  0.1267000000000000    0.8732979083333333    0.4999937500000000 # 27
  0.2500000000000000    0.8413479083333334    0.6586437500000000 # 28
  0.6267000000000000    0.6266979083333334    0.9999937500000000 # 29
  0.6586500000000000    0.7499979083333334    0.1586437500000000 # 210
  0.1267000000000000    0.1266979083333333    0.4999937500000000 # 211
  0.1586500000000000    0.2499979083333334    0.6586437500000000 # 212
  0.3733000000000001    0.6266979083333334    0.9999937500000000 # 213
  0.2500000000000000    0.6586479083333333    0.1586437500000000 # 214
  0.8733000000000000    0.1266979083333333    0.4999937500000000 # 215
  0.7500000000000000    0.1586479083333333    0.6586437500000000 # 216
  0.3733000000000001    0.9999979083333334    0.3732937500000000 # 217
  0.3413500000000000    0.8413479083333334    0.2499937500000000 # 218
  0.8733000000000000    0.4999979083333334    0.8732937500000000 # 219
  0.8413500000000000    0.3413479083333334    0.7499937500000000 # 220
  0.3413500000000000    0.7499979083333334    0.8413437500000001 # 221
  0.8413500000000000    0.2499979083333334    0.3413437500000000 # 222
  0.3733000000000001    0.9999979083333334    0.6266937500000000 # 223
  0.3413500000000000    0.1586479083333333    0.7499937500000000 # 224
  0.8733000000000000    0.4999979083333334    0.1266937500000000 # 225
  0.8413500000000000    0.6586479083333333    0.2499937500000000 # 226
  0.0000000000000000    0.3732979083333333    0.6266937500000000 # 227
  0.5000000000000000    0.8732979083333333    0.1266937500000000 # 228
  0.6586500000000000    0.2499979083333334    0.8413437500000001 # 229
  0.1586500000000000    0.7499979083333334    0.3413437500000000 # 230
  0.0000000000000000    0.3732979083333333    0.3732937500000000 # 231
  0.5000000000000000    0.8732979083333333    0.8732937500000000 # 232
  0.1586500000000000    0.3413479083333334    0.2499937500000000 # 233
  0.6586500000000000    0.8413479083333334    0.7499937500000000 # 234
  0.2500000000000000    0.1586479083333333    0.3413437500000000 # 235
  0.7500000000000000    0.6586479083333333    0.8413437500000001 # 236
  0.6267000000000000    0.9999979083333334    0.3732937500000000 # 237
  0.7500000000000000    0.8413479083333334    0.3413437500000000 # 238
  0.1267000000000000    0.4999979083333334    0.8732937500000000 # 239
  0.2500000000000000    0.3413479083333334    0.8413437500000001 # 240
  0.0000000000000000    0.6266979083333334    0.6266937500000000 # 241
  0.1586500000000000    0.6586479083333333    0.7499937500000000 # 242
  0.5000000000000000    0.1266979083333333    0.1266937500000000 # 243
  0.6586500000000000    0.1586479083333333    0.2499937500000000 # 244
  0.6267000000000000    0.9999979083333334    0.6266937500000000 # 245
  0.1267000000000000    0.4999979083333334    0.1266937500000000 # 246
  0.0000000000000000    0.6266979083333334    0.3732937500000000 # 247
  0.5000000000000000    0.1266979083333333    0.8732937500000000 # 248
