$cell vectors
1.0
  7.1759966233922485    0.0000000000000000    0.0000000000000000
  0.0000000000000000    7.1759966233922485    0.0000000000000000
  0.0000000000000000    0.0000000000000000    7.1759966233922485
 4 4 16
Direct
  0.7500000000000000    0.7500000000000006    0.7500000000000000 # Zn1
  0.2500000000000002    0.7500000000000000    0.2500000000000002 # Zn2
  0.2500000000000002    0.2500000000000002    0.7500000000000000 # Zn3
  0.7500000000000000    0.2500000000000002    0.2500000000000002 # Zn4
  0.0000000000000000    0.0000000000000000    0.0000000000000000 # S1
  0.5000000000000004    0.5000000000000004    0.0000000000000000 # S2
  0.0000000000000000    0.5000000000000004    0.5000000000000004 # S3
  0.5000000000000004    0.0000000000000000    0.5000000000000004 # S4
  0.8750000000000004    0.8750000000000004    0.8750000000000004 # O1
  0.8750000000000004    0.3750000000000000    0.3750000000000000 # O2
  0.3750000000000000    0.8750000000000004    0.3750000000000000 # O3
  0.3750000000000000    0.3750000000000000    0.8750000000000004 # O4
  0.8750000000000004    0.6250000000000000    0.6250000000000000 # O5
  0.1249999999999997    0.8750000000000004    0.1249999999999997 # O6
  0.1249999999999997    0.3750000000000000    0.6250000000000000 # O7
  0.6250000000000000    0.8750000000000004    0.6250000000000000 # O8
  0.6250000000000000    0.3750000000000000    0.1249999999999997 # O9
  0.8750000000000004    0.1249999999999997    0.1249999999999997 # O10
  0.3750000000000000    0.1250000000000005    0.6250000000000000 # O11
  0.3750000000000000    0.6250000000000000    0.1249999999999997 # O12
  0.1249999999999997    0.1250000000000005    0.8750000000000004 # O13
  0.1249999999999997    0.6250000000000000    0.3750000000000000 # O14
  0.6250000000000000    0.1249999999999997    0.3750000000000000 # O15
  0.6250000000000000    0.6250000000000000    0.8750000000000004 # O16
