$cell vectors
1.0
 21.8099897374839671    0.0000000000000000    0.0000000000000000
  0.0000000000000000   21.8099897374839671    0.0000000000000000
  0.0000000000000000    0.0000000000000000   21.8099897374839671
 32 80 256 192
Direct
  0.0000000000000000    0.0000000000000000    0.0000000000000000 # Co1
  0.0000000000000000    0.5000000000000001    0.5000000000000001 # Co2
  0.5000000000000001    0.0000000000000000    0.5000000000000001 # Co3
  0.5000000000000001    0.5000000000000001    0.0000000000000000 # Co4
  0.0000000000000000    0.2500000000000001    0.7500000000000002 # Co5
  0.0000000000000000    0.7500000000000002    0.2500000000000001 # Co6
  0.5000000000000001    0.2500000000000001    0.2500000000000001 # Co7
  0.5000000000000001    0.7500000000000002    0.7500000000000002 # Co8
  0.2500000000000001    0.2500000000000001    0.0000000000000000 # Co9
  0.2500000000000001    0.7500000000000002    0.5000000000000001 # Co10
  0.7500000000000002    0.2500000000000001    0.5000000000000001 # Co11
  0.7500000000000002    0.7500000000000002    0.0000000000000000 # Co12
  0.2500000000000001    0.0000000000000000    0.7500000000000002 # Co13
  0.2500000000000001    0.5000000000000001    0.2500000000000001 # Co14
  0.7500000000000002    0.0000000000000000    0.2500000000000001 # Co15
  0.7500000000000002    0.5000000000000001    0.7500000000000002 # Co16
  0.0000000000000000    0.2500000000000001    0.2500000000000001 # Co17
  0.0000000000000000    0.7500000000000002    0.7500000000000002 # Co18
  0.5000000000000001    0.2500000000000001    0.7500000000000002 # Co19
  0.5000000000000001    0.7500000000000002    0.2500000000000001 # Co20
  0.2500000000000001    0.7500000000000002    0.0000000000000000 # Co21
  0.2500000000000001    0.2500000000000001    0.5000000000000001 # Co22
  0.7500000000000002    0.7500000000000002    0.5000000000000001 # Co23
  0.7500000000000002    0.2500000000000001    0.0000000000000000 # Co24
  0.2500000000000001    0.0000000000000000    0.2500000000000001 # Co25
  0.2500000000000001    0.5000000000000001    0.7500000000000002 # Co26
  0.7500000000000002    0.0000000000000000    0.7500000000000002 # Co27
  0.7500000000000002    0.5000000000000001    0.2500000000000001 # Co28
  0.0000000000000000    0.0000000000000000    0.5000000000000001 # Co29
  0.0000000000000000    0.5000000000000001    0.0000000000000000 # Co30
  0.5000000000000001    0.0000000000000000    0.0000000000000000 # Co31
  0.5000000000000001    0.5000000000000001    0.5000000000000001 # Co32
  0.2550000000000001    0.2550000000000001    0.2550000000000001 # Cu1
  0.1250000000000000    0.1250000000000000    0.1250000000000000 # Cu2
  0.2550000000000001    0.7550000000000002    0.7550000000000002 # Cu3
  0.1250000000000000    0.6250000000000001    0.6250000000000001 # Cu4
  0.7550000000000002    0.2550000000000001    0.7550000000000002 # Cu5
  0.6250000000000001    0.1250000000000000    0.6250000000000001 # Cu6
  0.7550000000000002    0.7550000000000002    0.2550000000000001 # Cu7
  0.6250000000000001    0.6250000000000001    0.1250000000000000 # Cu8
  0.7450000000000000    0.7450000000000003    0.7450000000000000 # Cu9
  0.8749999999999999    0.8750000000000001    0.8749999999999999 # Cu10
  0.7450000000000000    0.2450000000000001    0.2450000000000001 # Cu11
  0.8749999999999999    0.3750000000000001    0.3750000000000001 # Cu12
  0.2450000000000004    0.7450000000000000    0.2450000000000001 # Cu13
  0.3750000000000003    0.8749999999999999    0.3750000000000001 # Cu14
  0.2450000000000004    0.2450000000000001    0.7450000000000000 # Cu15
  0.3750000000000003    0.3750000000000001    0.8749999999999999 # Cu16
  0.7450000000000000    0.5050000000000001    0.0050000000000000 # Cu17
  0.8749999999999999    0.3750000000000001    0.8749999999999999 # Cu18
  0.7450000000000000    0.0050000000000000    0.5050000000000001 # Cu19
  0.8749999999999999    0.8749999999999999    0.3750000000000001 # Cu20
  0.2450000000000001    0.5050000000000001    0.5050000000000001 # Cu21
  0.3750000000000001    0.3750000000000001    0.3750000000000001 # Cu22
  0.2450000000000001    0.0050000000000000    0.0050000000000000 # Cu23
  0.3750000000000001    0.8750000000000001    0.8749999999999999 # Cu24
  0.2550000000000005    0.4950000000000002    0.9950000000000002 # Cu25
  0.1249999999999998    0.6250000000000001    0.1249999999999998 # Cu26
  0.2550000000000005    0.9950000000000001    0.4949999999999999 # Cu27
  0.1249999999999998    0.1249999999999998    0.6250000000000001 # Cu28
  0.7550000000000002    0.4950000000000002    0.4950000000000002 # Cu29
  0.6250000000000001    0.6250000000000001    0.6250000000000001 # Cu30
  0.7550000000000002    0.9950000000000002    0.9950000000000002 # Cu31
  0.6250000000000001    0.1249999999999998    0.1249999999999998 # Cu32
  0.9950000000000002    0.9950000000000002    0.2550000000000001 # Cu33
  0.9950000000000002    0.4950000000000002    0.7550000000000002 # Cu34
  0.4950000000000002    0.9950000000000002    0.7550000000000002 # Cu35
  0.4950000000000002    0.4950000000000002    0.2550000000000001 # Cu36
  0.0050000000000000    0.0050000000000000    0.7450000000000000 # Cu37
  0.0050000000000000    0.5050000000000001    0.2450000000000001 # Cu38
  0.5050000000000003    0.0050000000000000    0.2450000000000001 # Cu39
  0.5050000000000003    0.5050000000000001    0.7450000000000000 # Cu40
  0.5050000000000001    0.7450000000000000    0.0050000000000000 # Cu41
  0.5050000000000001    0.2450000000000001    0.5050000000000001 # Cu42
  0.0050000000000000    0.7450000000000000    0.5050000000000001 # Cu43
  0.0050000000000000    0.2450000000000001    0.0050000000000000 # Cu44
  0.4950000000000002    0.2550000000000003    0.9950000000000002 # Cu45
  0.4950000000000002    0.7550000000000002    0.4950000000000002 # Cu46
  0.9950000000000001    0.2550000000000003    0.4949999999999999 # Cu47
  0.9950000000000002    0.7550000000000002    0.9950000000000002 # Cu48
  0.2550000000000001    0.9950000000000002    0.9950000000000002 # Cu49
  0.2550000000000001    0.4950000000000002    0.4950000000000002 # Cu50
  0.7550000000000002    0.9950000000000002    0.4950000000000002 # Cu51
  0.7550000000000002    0.4950000000000002    0.9950000000000002 # Cu52
  0.7450000000000000    0.0050000000000000    0.0050000000000000 # Cu53
  0.7450000000000000    0.5050000000000001    0.5050000000000001 # Cu54
  0.2450000000000004    0.0050000000000000    0.5050000000000001 # Cu55
  0.2450000000000004    0.5050000000000001    0.0050000000000000 # Cu56
  0.5050000000000001    0.0050000000000002    0.7450000000000000 # Cu57
  0.5050000000000001    0.5050000000000001    0.2450000000000001 # Cu58
  0.0050000000000000    0.0050000000000000    0.2450000000000001 # Cu59
  0.0050000000000000    0.5050000000000001    0.7450000000000000 # Cu60
  0.4950000000000002    0.9950000000000001    0.2550000000000001 # Cu61
  0.4950000000000002    0.4950000000000002    0.7550000000000002 # Cu62
  0.9950000000000002    0.9950000000000002    0.7550000000000002 # Cu63
  0.9950000000000001    0.4949999999999999    0.2550000000000001 # Cu64
  0.9950000000000002    0.2550000000000001    0.9950000000000002 # Cu65
  0.9950000000000002    0.7550000000000002    0.4950000000000002 # Cu66
  0.4950000000000002    0.2550000000000001    0.4950000000000002 # Cu67
  0.4950000000000002    0.7550000000000002    0.9950000000000002 # Cu68
  0.0050000000000000    0.7450000000000000    0.0050000000000000 # Cu69
  0.0050000000000000    0.2450000000000001    0.5050000000000001 # Cu70
  0.5050000000000003    0.7450000000000000    0.5050000000000001 # Cu71
  0.5050000000000003    0.2450000000000001    0.0050000000000000 # Cu72
  0.7450000000000000    0.7450000000000000    0.2450000000000001 # Cu73
  0.7450000000000000    0.2450000000000001    0.7450000000000000 # Cu74
  0.2450000000000001    0.7450000000000003    0.7450000000000000 # Cu75
  0.2450000000000001    0.2450000000000001    0.2450000000000001 # Cu76
  0.2550000000000005    0.2550000000000003    0.7550000000000002 # Cu77
  0.2550000000000005    0.7550000000000002    0.2550000000000001 # Cu78
  0.7550000000000002    0.2550000000000003    0.2550000000000001 # Cu79
  0.7550000000000002    0.7550000000000002    0.7550000000000002 # Cu80
  0.1880000000000001    0.1880000000000001    0.1880000000000001 # Cl1
  0.2621000000000001    0.0768000000000001    0.9250000000000005 # Cl2
  0.1880000000000001    0.6880000000000003    0.6879999999999999 # Cl3
  0.2621000000000001    0.5768000000000001    0.4250000000000002 # Cl4
  0.6880000000000003    0.1880000000000001    0.6879999999999999 # Cl5
  0.7621000000000003    0.0768000000000001    0.4250000000000002 # Cl6
  0.6880000000000003    0.6879999999999999    0.1880000000000001 # Cl7
  0.7621000000000003    0.5768000000000001    0.9250000000000005 # Cl8
  0.8120000000000003    0.8120000000000004    0.8120000000000003 # Cl9
  0.7379000000000001    0.9232000000000001    0.0749999999999999 # Cl10
  0.8119999999999999    0.3120000000000001    0.3120000000000001 # Cl11
  0.7379000000000001    0.4232000000000004    0.5750000000000001 # Cl12
  0.3120000000000003    0.8119999999999999    0.3120000000000001 # Cl13
  0.2379000000000005    0.9232000000000001    0.5750000000000001 # Cl14
  0.3120000000000003    0.3120000000000001    0.8120000000000003 # Cl15
  0.2379000000000005    0.4232000000000000    0.0749999999999999 # Cl16
  0.8120000000000003    0.4380000000000001    0.9380000000000001 # Cl17
  0.9232000000000001    0.5121000000000002    0.6750000000000000 # Cl18
  0.8120000000000003    0.9380000000000001    0.4380000000000001 # Cl19
  0.9232000000000001    0.0121000000000001    0.1749999999999999 # Cl20
  0.3120000000000001    0.4380000000000001    0.4380000000000001 # Cl21
  0.4232000000000000    0.5121000000000002    0.1749999999999999 # Cl22
  0.3120000000000001    0.9380000000000004    0.9380000000000001 # Cl23
  0.4232000000000004    0.0121000000000001    0.6750000000000000 # Cl24
  0.1879999999999999    0.5620000000000002    0.0619999999999997 # Cl25
  0.0768000000000001    0.4879000000000001    0.3250000000000002 # Cl26
  0.1879999999999999    0.0620000000000000    0.5620000000000002 # Cl27
  0.0768000000000001    0.9879000000000001    0.8250000000000002 # Cl28
  0.6879999999999999    0.5620000000000002    0.5620000000000002 # Cl29
  0.5768000000000003    0.4879000000000001    0.8250000000000002 # Cl30
  0.6879999999999999    0.0619999999999997    0.0619999999999997 # Cl31
  0.5768000000000003    0.9879000000000001    0.3250000000000002 # Cl32
  0.0620000000000000    0.0620000000000000    0.1880000000000001 # Cl33
  0.9879000000000001    0.1732000000000002    0.9250000000000005 # Cl34
  0.0620000000000000    0.5620000000000002    0.6879999999999999 # Cl35
  0.9879000000000001    0.6732000000000004    0.4250000000000002 # Cl36
  0.5620000000000002    0.0620000000000002    0.6879999999999999 # Cl37
  0.4879000000000001    0.1732000000000002    0.4250000000000002 # Cl38
  0.5620000000000002    0.5620000000000002    0.1880000000000001 # Cl39
  0.4879000000000002    0.6732000000000004    0.9250000000000005 # Cl40
  0.9380000000000001    0.9380000000000004    0.8120000000000003 # Cl41
  0.0121000000000001    0.8268000000000003    0.0749999999999999 # Cl42
  0.9380000000000001    0.4379999999999998    0.3120000000000001 # Cl43
  0.0121000000000001    0.3268000000000002    0.5750000000000001 # Cl44
  0.4380000000000003    0.9380000000000001    0.3120000000000001 # Cl45
  0.5121000000000004    0.8268000000000003    0.5750000000000001 # Cl46
  0.4380000000000003    0.4380000000000001    0.8120000000000003 # Cl47
  0.5121000000000002    0.3268000000000002    0.0749999999999999 # Cl48
  0.4380000000000001    0.8120000000000004    0.9380000000000001 # Cl49
  0.3268000000000002    0.7379000000000001    0.6750000000000000 # Cl50
  0.4380000000000001    0.3120000000000001    0.4380000000000001 # Cl51
  0.3267999999999999    0.2379000000000000    0.1749999999999999 # Cl52
  0.9380000000000001    0.8120000000000003    0.4380000000000001 # Cl53
  0.8268000000000003    0.7379000000000001    0.1749999999999999 # Cl54
  0.9380000000000001    0.3120000000000001    0.9380000000000001 # Cl55
  0.8268000000000003    0.2379000000000002    0.6750000000000000 # Cl56
  0.5620000000000002    0.1879999999999999    0.0619999999999997 # Cl57
  0.6732000000000001    0.2621000000000001    0.3250000000000002 # Cl58
  0.5620000000000002    0.6880000000000003    0.5620000000000002 # Cl59
  0.6732000000000004    0.7621000000000006    0.8250000000000002 # Cl60
  0.0620000000000000    0.1879999999999999    0.5620000000000002 # Cl61
  0.1732000000000004    0.2621000000000001    0.8250000000000002 # Cl62
  0.0620000000000000    0.6879999999999999    0.0619999999999997 # Cl63
  0.1732000000000004    0.7621000000000000    0.3250000000000002 # Cl64
  0.5121000000000002    0.0750000000000002    0.8268000000000003 # Cl65
  0.5121000000000002    0.5750000000000001    0.3267999999999999 # Cl66
  0.0121000000000001    0.0749999999999999    0.3267999999999999 # Cl67
  0.0121000000000001    0.5750000000000002    0.8268000000000003 # Cl68
  0.4879000000000002    0.9249999999999999    0.1732000000000002 # Cl69
  0.4879000000000002    0.4250000000000002    0.6732000000000001 # Cl70
  0.9879000000000000    0.9250000000000003    0.6732000000000001 # Cl71
  0.9879000000000001    0.4250000000000002    0.1732000000000002 # Cl72
  0.1880000000000001    0.0620000000000000    0.0620000000000000 # Cl73
  0.2621000000000001    0.1732000000000002    0.3250000000000000 # Cl74
  0.1880000000000001    0.5620000000000002    0.5620000000000002 # Cl75
  0.2621000000000001    0.6732000000000004    0.8250000000000002 # Cl76
  0.6879999999999999    0.0620000000000000    0.5620000000000002 # Cl77
  0.7621000000000000    0.1732000000000002    0.8250000000000002 # Cl78
  0.6879999999999999    0.5620000000000002    0.0620000000000000 # Cl79
  0.7621000000000000    0.6732000000000004    0.3250000000000000 # Cl80
  0.8120000000000003    0.9380000000000004    0.9380000000000001 # Cl81
  0.7379000000000001    0.8268000000000003    0.6750000000000000 # Cl82
  0.8119999999999999    0.4380000000000001    0.4379999999999998 # Cl83
  0.7379000000000001    0.3268000000000002    0.1750000000000002 # Cl84
  0.3120000000000005    0.9380000000000001    0.4379999999999998 # Cl85
  0.2379000000000005    0.8268000000000003    0.1750000000000002 # Cl86
  0.3120000000000005    0.4380000000000001    0.9380000000000001 # Cl87
  0.2379000000000005    0.3268000000000002    0.6750000000000000 # Cl88
  0.4380000000000001    0.9380000000000004    0.8120000000000003 # Cl89
  0.5121000000000002    0.6750000000000003    0.9232000000000001 # Cl90
  0.4380000000000001    0.4380000000000001    0.3120000000000001 # Cl91
  0.5121000000000002    0.1750000000000002    0.4232000000000000 # Cl92
  0.9380000000000001    0.9380000000000001    0.3120000000000001 # Cl93
  0.0121000000000001    0.6750000000000003    0.4232000000000000 # Cl94
  0.9380000000000001    0.4380000000000001    0.8120000000000003 # Cl95
  0.0121000000000001    0.1750000000000002    0.9232000000000001 # Cl96
  0.5620000000000002    0.0620000000000000    0.1879999999999999 # Cl97
  0.4879000000000002    0.3250000000000002    0.0767999999999999 # Cl98
  0.5620000000000002    0.5620000000000002    0.6879999999999999 # Cl99
  0.4879000000000002    0.8250000000000002    0.5768000000000001 # Cl100
  0.0620000000000000    0.0620000000000000    0.6879999999999999 # Cl101
  0.9879000000000001    0.3250000000000002    0.5767999999999998 # Cl102
  0.0620000000000000    0.5620000000000002    0.1879999999999999 # Cl103
  0.9879000000000001    0.8250000000000002    0.0767999999999999 # Cl104
  0.1750000000000002    0.8268000000000003    0.7379000000000001 # Cl105
  0.1750000000000002    0.3267999999999999    0.2379000000000000 # Cl106
  0.6750000000000000    0.8268000000000003    0.2379000000000000 # Cl107
  0.6750000000000000    0.3268000000000002    0.7379000000000001 # Cl108
  0.8250000000000002    0.1732000000000002    0.2621000000000001 # Cl109
  0.8250000000000002    0.6732000000000004    0.7621000000000003 # Cl110
  0.3250000000000005    0.1732000000000002    0.7621000000000003 # Cl111
  0.3250000000000005    0.6732000000000001    0.2621000000000001 # Cl112
  0.0620000000000000    0.1880000000000001    0.0620000000000000 # Cl113
  0.9879000000000001    0.0768000000000001    0.3250000000000000 # Cl114
  0.0620000000000000    0.6880000000000003    0.5620000000000002 # Cl115
  0.9879000000000001    0.5768000000000001    0.8250000000000002 # Cl116
  0.5620000000000002    0.1880000000000001    0.5620000000000002 # Cl117
  0.4879000000000002    0.0768000000000001    0.8250000000000002 # Cl118
  0.5620000000000002    0.6879999999999999    0.0620000000000000 # Cl119
  0.4879000000000001    0.5768000000000001    0.3250000000000000 # Cl120
  0.9380000000000001    0.8120000000000004    0.9380000000000001 # Cl121
  0.0120999999999998    0.9232000000000001    0.6750000000000000 # Cl122
  0.9380000000000001    0.3120000000000001    0.4379999999999998 # Cl123
  0.0120999999999998    0.4232000000000000    0.1750000000000002 # Cl124
  0.4380000000000003    0.8119999999999999    0.4379999999999998 # Cl125
  0.5121000000000004    0.9231999999999998    0.1750000000000002 # Cl126
  0.4380000000000003    0.3120000000000003    0.9380000000000001 # Cl127
  0.5121000000000002    0.4232000000000004    0.6750000000000000 # Cl128
  0.0749999999999999    0.3267999999999999    0.0121000000000001 # Cl129
  0.0750000000000002    0.8268000000000003    0.5121000000000002 # Cl130
  0.5750000000000001    0.3267999999999999    0.5121000000000002 # Cl131
  0.5750000000000001    0.8268000000000003    0.0121000000000001 # Cl132
  0.9250000000000005    0.6732000000000004    0.9879000000000001 # Cl133
  0.9250000000000003    0.1732000000000002    0.4879000000000001 # Cl134
  0.4250000000000002    0.6732000000000004    0.4879000000000001 # Cl135
  0.4250000000000002    0.1732000000000002    0.9879000000000001 # Cl136
  0.9250000000000005    0.2621000000000001    0.0768000000000001 # Cl137
  0.9250000000000005    0.7621000000000003    0.5768000000000001 # Cl138
  0.4250000000000002    0.2621000000000001    0.5768000000000001 # Cl139
  0.4250000000000002    0.7621000000000003    0.0768000000000001 # Cl140
  0.0750000000000002    0.7379000000000001    0.9232000000000001 # Cl141
  0.0749999999999999    0.2379000000000002    0.4232000000000000 # Cl142
  0.5750000000000002    0.7379000000000001    0.4232000000000000 # Cl143
  0.5750000000000002    0.2379000000000002    0.9232000000000001 # Cl144
  0.0768000000000001    0.9250000000000005    0.2621000000000001 # Cl145
  0.0768000000000001    0.4250000000000002    0.7621000000000000 # Cl146
  0.5768000000000001    0.9250000000000005    0.7621000000000000 # Cl147
  0.5768000000000001    0.4250000000000000    0.2621000000000001 # Cl148
  0.9232000000000001    0.0750000000000002    0.7379000000000001 # Cl149
  0.9231999999999998    0.5750000000000001    0.2379000000000002 # Cl150
  0.4232000000000004    0.0749999999999999    0.2379000000000002 # Cl151
  0.4232000000000004    0.5750000000000001    0.7379000000000001 # Cl152
  0.1732000000000002    0.3250000000000000    0.2621000000000001 # Cl153
  0.1732000000000002    0.8250000000000004    0.7621000000000000 # Cl154
  0.6732000000000004    0.3250000000000002    0.7621000000000000 # Cl155
  0.6732000000000004    0.8250000000000002    0.2621000000000001 # Cl156
  0.8268000000000003    0.6750000000000003    0.7379000000000001 # Cl157
  0.8268000000000003    0.1750000000000002    0.2379000000000002 # Cl158
  0.3268000000000005    0.6750000000000000    0.2379000000000002 # Cl159
  0.3268000000000005    0.1750000000000002    0.7379000000000001 # Cl160
  0.9250000000000005    0.9879000000000001    0.1731999999999999 # Cl161
  0.9250000000000005    0.4879000000000002    0.6732000000000004 # Cl162
  0.4250000000000002    0.9879000000000001    0.6732000000000004 # Cl163
  0.4250000000000000    0.4879000000000001    0.1731999999999999 # Cl164
  0.0749999999999999    0.0120999999999998    0.8268000000000003 # Cl165
  0.0749999999999999    0.5121000000000002    0.3268000000000002 # Cl166
  0.5750000000000002    0.0120999999999998    0.3268000000000002 # Cl167
  0.5750000000000002    0.5121000000000002    0.8268000000000003 # Cl168
  0.1732000000000002    0.9250000000000005    0.9879000000000001 # Cl169
  0.1732000000000002    0.4250000000000002    0.4879000000000001 # Cl170
  0.6732000000000004    0.9250000000000005    0.4879000000000001 # Cl171
  0.6732000000000004    0.4250000000000002    0.9879000000000001 # Cl172
  0.8268000000000003    0.0749999999999999    0.0121000000000001 # Cl173
  0.8268000000000003    0.5750000000000002    0.5121000000000002 # Cl174
  0.3268000000000005    0.0749999999999999    0.5121000000000002 # Cl175
  0.3268000000000005    0.5750000000000001    0.0121000000000001 # Cl176
  0.3250000000000000    0.9879000000000001    0.0768000000000001 # Cl177
  0.3250000000000002    0.4879000000000001    0.5768000000000001 # Cl178
  0.8250000000000002    0.9879000000000001    0.5768000000000001 # Cl179
  0.8250000000000002    0.4879000000000001    0.0768000000000001 # Cl180
  0.6750000000000000    0.0121000000000001    0.9232000000000001 # Cl181
  0.6750000000000000    0.5121000000000002    0.4232000000000000 # Cl182
  0.1750000000000004    0.0121000000000001    0.4232000000000000 # Cl183
  0.1750000000000004    0.5121000000000002    0.9232000000000001 # Cl184
  0.3250000000000000    0.2621000000000001    0.1731999999999999 # Cl185
  0.3250000000000002    0.7621000000000000    0.6732000000000004 # Cl186
  0.8250000000000002    0.2621000000000001    0.6732000000000004 # Cl187
  0.8250000000000002    0.7621000000000000    0.1731999999999999 # Cl188
  0.6750000000000003    0.7379000000000001    0.8268000000000003 # Cl189
  0.6750000000000000    0.2379000000000002    0.3268000000000002 # Cl190
  0.1750000000000004    0.7379000000000001    0.3268000000000002 # Cl191
  0.1750000000000004    0.2379000000000002    0.8268000000000003 # Cl192
  0.0768000000000001    0.3250000000000002    0.9879000000000001 # Cl193
  0.0768000000000001    0.8250000000000002    0.4879000000000001 # Cl194
  0.5768000000000001    0.3250000000000000    0.4879000000000001 # Cl195
  0.5768000000000003    0.8250000000000004    0.9879000000000001 # Cl196
  0.9232000000000001    0.6750000000000000    0.0121000000000001 # Cl197
  0.9232000000000001    0.1750000000000002    0.5121000000000002 # Cl198
  0.4232000000000004    0.6750000000000000    0.5121000000000002 # Cl199
  0.4232000000000004    0.1750000000000002    0.0121000000000001 # Cl200
  0.3267999999999999    0.0121000000000001    0.0749999999999999 # Cl201
  0.3268000000000002    0.5121000000000002    0.5750000000000001 # Cl202
  0.8268000000000003    0.0121000000000001    0.5750000000000001 # Cl203
  0.8268000000000003    0.5121000000000002    0.0749999999999999 # Cl204
  0.6732000000000004    0.9879000000000004    0.9250000000000005 # Cl205
  0.6732000000000004    0.4879000000000002    0.4250000000000002 # Cl206
  0.1732000000000004    0.9879000000000001    0.4250000000000000 # Cl207
  0.1732000000000004    0.4879000000000001    0.9250000000000005 # Cl208
  0.8120000000000003    0.8120000000000003    0.3120000000000001 # Cl209
  0.9232000000000001    0.7379000000000001    0.5750000000000001 # Cl210
  0.8120000000000003    0.3120000000000001    0.8120000000000003 # Cl211
  0.9232000000000001    0.2379000000000000    0.0749999999999999 # Cl212
  0.3120000000000001    0.8120000000000004    0.8120000000000003 # Cl213
  0.4232000000000004    0.7379000000000001    0.0749999999999999 # Cl214
  0.3120000000000001    0.3120000000000001    0.3120000000000001 # Cl215
  0.4232000000000000    0.2379000000000002    0.5750000000000001 # Cl216
  0.1879999999999999    0.1879999999999999    0.6879999999999999 # Cl217
  0.0768000000000001    0.2621000000000001    0.4250000000000000 # Cl218
  0.1879999999999999    0.6879999999999999    0.1879999999999999 # Cl219
  0.0768000000000001    0.7621000000000003    0.9250000000000005 # Cl220
  0.6879999999999999    0.1879999999999999    0.1879999999999999 # Cl221
  0.5768000000000001    0.2621000000000004    0.9250000000000005 # Cl222
  0.6880000000000003    0.6880000000000003    0.6879999999999999 # Cl223
  0.5768000000000001    0.7621000000000000    0.4250000000000002 # Cl224
  0.7379000000000001    0.1750000000000002    0.8268000000000003 # Cl225
  0.7379000000000001    0.6750000000000000    0.3267999999999999 # Cl226
  0.2379000000000000    0.1750000000000002    0.3267999999999999 # Cl227
  0.2379000000000002    0.6750000000000000    0.8268000000000003 # Cl228
  0.2621000000000004    0.8250000000000002    0.1732000000000002 # Cl229
  0.2621000000000004    0.3250000000000002    0.6732000000000001 # Cl230
  0.7621000000000003    0.8250000000000002    0.6732000000000001 # Cl231
  0.7621000000000000    0.3250000000000002    0.1732000000000002 # Cl232
  0.7379000000000001    0.0750000000000002    0.4232000000000000 # Cl233
  0.7379000000000001    0.5750000000000001    0.9232000000000001 # Cl234
  0.2379000000000002    0.0750000000000002    0.9232000000000001 # Cl235
  0.2379000000000002    0.5750000000000001    0.4232000000000000 # Cl236
  0.2621000000000004    0.9250000000000003    0.5767999999999998 # Cl237
  0.2621000000000004    0.4250000000000000    0.0767999999999999 # Cl238
  0.7621000000000000    0.9250000000000005    0.0767999999999999 # Cl239
  0.7621000000000000    0.4250000000000002    0.5768000000000001 # Cl240
  0.1750000000000002    0.9232000000000001    0.0121000000000001 # Cl241
  0.1750000000000002    0.4232000000000004    0.5121000000000002 # Cl242
  0.6750000000000003    0.9232000000000001    0.5121000000000002 # Cl243
  0.6750000000000000    0.4232000000000000    0.0121000000000001 # Cl244
  0.8250000000000002    0.0768000000000001    0.9879000000000001 # Cl245
  0.8250000000000002    0.5768000000000001    0.4879000000000001 # Cl246
  0.3250000000000005    0.0768000000000001    0.4879000000000001 # Cl247
  0.3250000000000005    0.5768000000000001    0.9879000000000001 # Cl248
  0.0749999999999999    0.9232000000000001    0.2379000000000000 # Cl249
  0.0749999999999999    0.4232000000000004    0.7379000000000001 # Cl250
  0.5750000000000002    0.9232000000000004    0.7379000000000001 # Cl251
  0.5750000000000001    0.4232000000000000    0.2379000000000000 # Cl252
  0.9250000000000003    0.0768000000000001    0.7621000000000003 # Cl253
  0.9249999999999999    0.5768000000000001    0.2621000000000001 # Cl254
  0.4250000000000002    0.0768000000000001    0.2621000000000001 # Cl255
  0.4250000000000002    0.5768000000000001    0.7621000000000003 # Cl256
  0.0707000000000001    0.0510999999999999   -0.0289999999999999 # N1
  0.0707000000000001    0.5511000000000003    0.4710000000000000 # N2
  0.5707000000000000    0.0510999999999999    0.4710000000000000 # N3
  0.5707000000000000    0.5510999999999999   -0.0289999999999999 # N4
 -0.0707000000000001   -0.0510999999999999    0.0289999999999999 # N5
 -0.0706999999999998    0.4489000000000002    0.5290000000000000 # N6
  0.4293000000000001   -0.0510999999999999    0.5290000000000000 # N7
  0.4293000000000001    0.4489000000000002    0.0289999999999999 # N8
 -0.0510999999999999    0.3207000000000002    0.7210000000000001 # N9
 -0.0510999999999999    0.8207000000000001    0.2210000000000001 # N10
  0.4489000000000002    0.3207000000000002    0.2210000000000001 # N11
  0.4489000000000002    0.8207000000000001    0.7210000000000001 # N12
  0.0511000000000002    0.6793000000000001    0.2790000000000000 # N13
  0.0511000000000002    0.1793000000000002    0.7790000000000001 # N14
  0.5511000000000003    0.6793000000000001    0.7790000000000001 # N15
  0.5510999999999999    0.1793000000000000    0.2790000000000000 # N16
  0.1793000000000000    0.1989000000000001   -0.0289999999999999 # N17
  0.1793000000000002    0.6989000000000002    0.4710000000000000 # N18
  0.6793000000000001    0.1989000000000001    0.4710000000000000 # N19
  0.6793000000000001    0.6989000000000002   -0.0289999999999999 # N20
  0.8207000000000001    0.8011000000000004    0.0289999999999999 # N21
  0.8207000000000001    0.3011000000000000    0.5290000000000000 # N22
  0.3207000000000002    0.8011000000000004    0.5290000000000000 # N23
  0.3206999999999999    0.3011000000000000    0.0289999999999999 # N24
  0.3011000000000000   -0.0706999999999998    0.7210000000000001 # N25
  0.3011000000000000    0.4293000000000001    0.2210000000000001 # N26
  0.8011000000000004   -0.0707000000000001    0.2210000000000001 # N27
  0.8011000000000004    0.4293000000000003    0.7210000000000001 # N28
  0.6989000000000002    0.0707000000000001    0.2790000000000000 # N29
  0.6989000000000002    0.5707000000000002    0.7790000000000001 # N30
  0.1989000000000001    0.0707000000000001    0.7790000000000001 # N31
  0.1989000000000001    0.5707000000000000    0.2790000000000000 # N32
  0.3207000000000002    0.0290000000000002    0.8011000000000004 # N33
  0.3207000000000002    0.5290000000000000    0.3011000000000000 # N34
  0.8207000000000001    0.0289999999999999    0.3011000000000000 # N35
  0.8207000000000001    0.5290000000000004    0.8011000000000004 # N36
  0.6793000000000001   -0.0289999999999999    0.1989000000000001 # N37
  0.6793000000000001    0.4710000000000002    0.6989000000000002 # N38
  0.1793000000000000   -0.0289999999999999    0.6989000000000002 # N39
  0.1793000000000000    0.4710000000000000    0.1989000000000001 # N40
  0.0707000000000001    0.1989000000000001    0.2790000000000000 # N41
  0.0707000000000001    0.6989000000000002    0.7790000000000001 # N42
  0.5707000000000002    0.1989000000000001    0.7790000000000001 # N43
  0.5707000000000002    0.6989000000000002    0.2790000000000000 # N44