$cell vectors
1.0
  7.9359962657805072    0.0000000000000000    0.0000000000000000
  0.0000000000000000    7.9359962657805072    0.0000000000000000
  0.0000000000000000    0.0000000000000000    7.9359962657805072
 4 8 20
Direct
  0.3750000000000002    0.3750000000000002    0.3750000000000002 # Cs1
  0.8749999999999996    0.1249999999999998    0.6249999999999998 # Cs2
  0.1249999999999998    0.6249999999999998    0.8749999999999996 # Cs3
  0.6249999999999998    0.8749999999999996    0.1249999999999998 # Cs4
  0.1005999999999999    0.1005999999999999    0.1005999999999999 # Be1
  0.1493999999999998    0.8505999999999996    0.3506000000000003 # Be2
  0.3994000000000001    0.8994000000000001    0.6006000000000000 # Be3
  0.3506000000000003    0.1493999999999998    0.8505999999999996 # Be4
  0.6006000000000000    0.3994000000000001    0.8994000000000001 # Be5
  0.8505999999999996    0.3506000000000003    0.1493999999999998 # Be6
  0.8994000000000001    0.6006000000000000    0.3994000000000001 # Be7
  0.6493999999999999    0.6493999999999999    0.6493999999999999 # Be8
  0.9910000000000002    0.9910000000000002    0.9909999999999994 # F1
  0.1249999999999998    0.0328999999999999    0.2828999999999996 # F2
  0.2590000000000003    0.7409999999999998    0.2409999999999997 # F3
  0.2170999999999997    0.8750000000000001    0.5328999999999999 # F4
  0.5089999999999999    0.0089999999999999    0.4910000000000000 # F5
  0.3750000000000002    0.9671000000000002    0.7828999999999997 # F6
  0.2410000000000004    0.2590000000000003    0.7409999999999998 # F7
  0.2828999999999996    0.1249999999999998    0.0328999999999999 # F8
  0.4910000000000000    0.5089999999999999    0.0089999999999999 # F9
  0.6249999999999998    0.4671000000000001    0.7170999999999997 # F10
  0.7409999999999998    0.2409999999999997    0.2589999999999996 # F11
  0.8749999999999996    0.5328999999999999    0.2170999999999997 # F12
  0.0328999999999999    0.2828999999999996    0.1249999999999998 # F13
  0.0089999999999999    0.4910000000000000    0.5089999999999999 # F14
  0.9671000000000002    0.7828999999999997    0.3750000000000002 # F15
  0.4671000000000001    0.7170999999999997    0.6249999999999998 # F16
  0.7828999999999997    0.3750000000000002    0.9670999999999995 # F17
  0.7170999999999997    0.6249999999999998    0.4671000000000001 # F18
  0.5328999999999999    0.2170999999999997    0.8749999999999996 # F19
  0.7589999999999995    0.7589999999999995    0.7589999999999995 # F20
