$cell vectors
1.0
 10.0459952729373647    0.0000000000000000    0.0000000000000000
  0.0000000000000000   10.0459952729373647    0.0000000000000000
  0.0000000000000000    0.0000000000000000   10.0459952729373647
 8 104
Direct
  0.2500000000000003    0.2500000000000003    0.2500000000000003 # Sb1
  0.2500000000000003    0.7500000000000003    0.7500000000000003 # Sb2
  0.7500000000000003    0.2500000000000003    0.7500000000000003 # Sb3
  0.7500000000000003    0.7500000000000003    0.2500000000000003 # Sb4
  0.7500000000000003    0.7500000000000003    0.7500000000000003 # Sb5
  0.7500000000000003    0.2500000000000003    0.2500000000000003 # Sb6
  0.2500000000000003    0.7500000000000003    0.2500000000000003 # Sb7
  0.2500000000000003    0.2500000000000003    0.7500000000000003 # Sb8
  0.0000000000000000    0.0000000000000000    0.0000000000000000 # Be1
  0.0000000000000000    0.1780999999999998    0.1157000000000001 # Be2
  0.0000000000000000    0.5000000000000000    0.5000000000000000 # Be3
  0.0000000000000000    0.6781000000000004    0.6157000000000001 # Be4
  0.5000000000000000    0.0000000000000000    0.5000000000000000 # Be5
  0.5000000000000000    0.1781000000000004    0.6157000000000001 # Be6
  0.5000000000000000    0.5000000000000000    0.0000000000000000 # Be7
  0.5000000000000000    0.6781000000000004    0.1157000000000001 # Be8
  0.0000000000000000    0.8219000000000003    0.8843000000000002 # Be9
  0.0000000000000000    0.3219000000000002    0.3843000000000000 # Be10
  0.5000000000000000    0.8219000000000003    0.3843000000000000 # Be11
  0.5000000000000000    0.3219000000000002    0.8843000000000002 # Be12
  0.0000000000000000    0.0000000000000000    0.5000000000000000 # Be13
  0.8219000000000003    0.0000000000000000    0.6157000000000001 # Be14
  0.0000000000000000    0.5000000000000000    0.0000000000000000 # Be15
  0.8219000000000003    0.5000000000000000    0.1157000000000001 # Be16
  0.5000000000000000    0.0000000000000000    0.0000000000000000 # Be17
  0.3219000000000002    0.0000000000000000    0.1157000000000001 # Be18
  0.5000000000000000    0.5000000000000000    0.5000000000000000 # Be19
  0.3219000000000002    0.5000000000000000    0.6157000000000001 # Be20
  0.1780999999999998    0.0000000000000000    0.3843000000000000 # Be21
  0.1781000000000004    0.5000000000000000    0.8843000000000002 # Be22
  0.6781000000000004    0.0000000000000000    0.8843000000000002 # Be23
  0.6781000000000004    0.5000000000000000    0.3843000000000000 # Be24
  0.0000000000000000    0.8219000000000003    0.1157000000000001 # Be25
  0.0000000000000000    0.3219000000000002    0.6157000000000001 # Be26
  0.5000000000000000    0.8219000000000003    0.6157000000000001 # Be27
  0.5000000000000000    0.3219000000000002    0.1157000000000001 # Be28
  0.0000000000000000    0.1781000000000004    0.8843000000000002 # Be29
  0.0000000000000000    0.6781000000000004    0.3843000000000000 # Be30
  0.5000000000000000    0.1780999999999998    0.3843000000000000 # Be31
  0.5000000000000000    0.6781000000000004    0.8843000000000002 # Be32
  0.1780999999999998    0.0000000000000000    0.6157000000000001 # Be33
  0.1780999999999998    0.5000000000000000    0.1157000000000001 # Be34
  0.6781000000000004    0.0000000000000000    0.1157000000000001 # Be35
  0.6781000000000004    0.5000000000000000    0.6157000000000001 # Be36
  0.8219000000000003    0.0000000000000000    0.3843000000000000 # Be37
  0.8219000000000003    0.5000000000000000    0.8843000000000002 # Be38
  0.3219000000000002    0.0000000000000000    0.8843000000000002 # Be39
  0.3219000000000002    0.5000000000000000    0.3843000000000000 # Be40
  0.0000000000000000    0.8843000000000002    0.6781000000000004 # Be41
  0.0000000000000000    0.3843000000000000    0.1780999999999998 # Be42
  0.5000000000000000    0.8843000000000002    0.1780999999999998 # Be43
  0.5000000000000000    0.3843000000000000    0.6781000000000004 # Be44
  0.0000000000000000    0.1157000000000001    0.3219000000000002 # Be45
  0.0000000000000000    0.6157000000000001    0.8219000000000003 # Be46
  0.5000000000000000    0.1157000000000001    0.8219000000000003 # Be47
  0.5000000000000000    0.6157000000000001    0.3219000000000002 # Be48
  0.1157000000000001    0.1781000000000004    0.5000000000000000 # Be49
  0.1157000000000001    0.6781000000000004    0.0000000000000000 # Be50
  0.6157000000000001    0.1780999999999998    0.0000000000000000 # Be51
  0.6157000000000001    0.6781000000000004    0.5000000000000000 # Be52
  0.8843000000000002    0.8219000000000003    0.5000000000000000 # Be53
  0.8843000000000002    0.3219000000000002    0.0000000000000000 # Be54
  0.3843000000000000    0.8219000000000003    0.0000000000000000 # Be55
  0.3843000000000000    0.3219000000000002    0.5000000000000000 # Be56
  0.8843000000000002    0.1781000000000004    0.5000000000000000 # Be57
  0.8843000000000002    0.6781000000000004    0.0000000000000000 # Be58
  0.3843000000000000    0.1780999999999998    0.0000000000000000 # Be59
  0.3843000000000000    0.6781000000000004    0.5000000000000000 # Be60
  0.1157000000000001    0.8219000000000003    0.5000000000000000 # Be61
  0.1157000000000001    0.3219000000000002    0.0000000000000000 # Be62
  0.6157000000000001    0.8219000000000003    0.0000000000000000 # Be63
  0.6157000000000001    0.3219000000000002    0.5000000000000000 # Be64
  0.1157000000000001    0.0000000000000000    0.1780999999999998 # Be65
  0.1157000000000001    0.5000000000000000    0.6781000000000004 # Be66
  0.6157000000000001    0.0000000000000000    0.6781000000000004 # Be67
  0.6157000000000001    0.5000000000000000    0.1780999999999998 # Be68
  0.8843000000000002    0.0000000000000000    0.8219000000000003 # Be69
  0.8843000000000002    0.5000000000000000    0.3219000000000002 # Be70
  0.3843000000000000    0.0000000000000000    0.3219000000000002 # Be71
  0.3843000000000000    0.5000000000000000    0.8219000000000003 # Be72
  0.1780999999999998    0.1157000000000001    0.0000000000000000 # Be73
  0.1781000000000004    0.6157000000000001    0.5000000000000000 # Be74
  0.6781000000000004    0.1157000000000001    0.5000000000000000 # Be75
  0.6781000000000004    0.6157000000000001    0.0000000000000000 # Be76
  0.8219000000000003    0.8843000000000002    0.0000000000000000 # Be77
  0.8219000000000003    0.3843000000000000    0.5000000000000000 # Be78
  0.3219000000000002    0.8843000000000002    0.5000000000000000 # Be79
  0.3219000000000002    0.3843000000000000    0.0000000000000000 # Be80
  0.1157000000000001    0.0000000000000000    0.8219000000000003 # Be81
  0.1157000000000001    0.5000000000000000    0.3219000000000002 # Be82
  0.6157000000000001    0.0000000000000000    0.3219000000000002 # Be83
  0.6157000000000001    0.5000000000000000    0.8219000000000003 # Be84
  0.8843000000000002    0.0000000000000000    0.1780999999999998 # Be85
  0.8843000000000002    0.5000000000000000    0.6781000000000004 # Be86
  0.3843000000000000    0.0000000000000000    0.6781000000000004 # Be87
  0.3843000000000000    0.5000000000000000    0.1780999999999998 # Be88
  0.8219000000000003    0.1157000000000001    0.0000000000000000 # Be89
  0.8219000000000003    0.6157000000000001    0.5000000000000000 # Be90
  0.3219000000000002    0.1157000000000001    0.5000000000000000 # Be91
  0.3219000000000002    0.6157000000000001    0.0000000000000000 # Be92
  0.1780999999999998    0.8843000000000002    0.0000000000000000 # Be93
  0.1780999999999998    0.3843000000000000    0.5000000000000000 # Be94
  0.6781000000000004    0.8843000000000002    0.5000000000000000 # Be95
  0.6781000000000004    0.3843000000000000    0.0000000000000000 # Be96
  0.0000000000000000    0.1157000000000001    0.6781000000000004 # Be97
  0.0000000000000000    0.6157000000000001    0.1780999999999998 # Be98
  0.5000000000000000    0.1157000000000001    0.1780999999999998 # Be99
  0.5000000000000000    0.6157000000000001    0.6781000000000004 # Be100
  0.0000000000000000    0.8843000000000002    0.3219000000000002 # Be101
  0.0000000000000000    0.3843000000000000    0.8219000000000003 # Be102
  0.5000000000000000    0.8843000000000005    0.8219000000000003 # Be103
  0.5000000000000000    0.3843000000000000    0.3219000000000002 # Be104
