$cell vectors
1.0
 15.6989926129647372    0.0000000000000000    0.0000000000000000
  0.0000000000000000   15.6989926129647372    0.0000000000000000
  0.0000000000000000    0.0000000000000000   15.6989926129647372
 32 192 384
Direct
  0.3771000000000001    0.3771000000000001    0.3771000000000001 # Te1
  0.3771000000000001    0.8771000000000000    0.8770999999999997 # Te2
  0.8770999999999997    0.3771000000000001    0.8770999999999997 # Te3
  0.8770999999999997    0.8770999999999997    0.3771000000000001 # Te4
  0.8728999999999998    0.6271000000000001    0.6270999999999998 # Te5
  0.8728999999999998    0.1271000000000001    0.1271000000000001 # Te6
  0.3728999999999998    0.6270999999999998    0.1271000000000001 # Te7
  0.3728999999999998    0.1271000000000001    0.6270999999999998 # Te8
  0.6228999999999998    0.6228999999999998    0.3771000000000001 # Te9
  0.6228999999999998    0.1229000000000002    0.8770999999999997 # Te10
  0.1229000000000002    0.6229000000000001    0.8770999999999997 # Te11
  0.1228999999999998    0.1228999999999998    0.3771000000000001 # Te12
  0.6270999999999998    0.8728999999999998    0.6270999999999998 # Te13
  0.6270999999999998    0.3728999999999998    0.1271000000000001 # Te14
  0.1271000000000001    0.8728999999999998    0.1271000000000001 # Te15
  0.1271000000000001    0.3728999999999998    0.6270999999999998 # Te16
  0.3771000000000001    0.6229000000000001    0.6228999999999998 # Te17
  0.3771000000000001    0.1228999999999998    0.1228999999999998 # Te18
  0.8770999999999997    0.6228999999999998    0.1228999999999998 # Te19
  0.8770999999999997    0.1229000000000002    0.6228999999999998 # Te20
  0.6270999999999998    0.6271000000000001    0.8728999999999998 # Te21
  0.6270999999999998    0.1271000000000001    0.3728999999999998 # Te22
  0.1271000000000001    0.6270999999999998    0.3728999999999998 # Te23
  0.1271000000000001    0.1271000000000001    0.8728999999999998 # Te24
  0.6228999999999998    0.3771000000000001    0.6228999999999998 # Te25
  0.6228999999999998    0.8770999999999997    0.1228999999999998 # Te26
  0.1228999999999998    0.3771000000000001    0.1228999999999998 # Te27
  0.1229000000000002    0.8771000000000000    0.6228999999999998 # Te28
  0.8728999999999998    0.8728999999999998    0.8728999999999998 # Te29
  0.8728999999999998    0.3728999999999998    0.3728999999999998 # Te30
  0.3728999999999998    0.8728999999999998    0.3728999999999998 # Te31
  0.3728999999999998    0.3729000000000002    0.8728999999999998 # Te32
  0.4072000000000000    0.3384000000000001    0.2606999999999998 # O1
  0.3502999999999998    0.4207000000000000    0.4806000000000000 # O2
  0.4072000000000000    0.8384000000000000    0.7606999999999998 # O3
  0.3502999999999998    0.9206999999999999    0.9805999999999999 # O4
  0.9071999999999999    0.3384000000000001    0.7606999999999998 # O5
  0.8502999999999999    0.4207000000000000    0.9805999999999999 # O6
  0.9071999999999999    0.8383999999999997    0.2606999999999998 # O7
  0.8502999999999999    0.9206999999999999    0.4806000000000000 # O8
  0.9115999999999999    0.6572000000000002    0.5106999999999997 # O9
  0.8292999999999998    0.6003000000000002    0.7305999999999998 # O10
  0.9115999999999999    0.1571999999999999    0.0107000000000001 # O11
  0.8292999999999998    0.1002999999999999    0.2306000000000000 # O12
  0.4115999999999999    0.6571999999999998    0.0107000000000001 # O13
  0.3293000000000000    0.6002999999999998    0.2306000000000000 # O14
  0.4115999999999999    0.1571999999999999    0.5106999999999997 # O15
  0.3293000000000000    0.1002999999999999    0.7305999999999998 # O16
  0.5928000000000001    0.6615999999999997    0.2606999999999998 # O17
  0.6496999999999997    0.5792999999999999    0.4806000000000000 # O18
  0.5928000000000001    0.1616000000000002    0.7606999999999998 # O19
  0.6497000000000001    0.0793000000000000    0.9805999999999999 # O20
  0.0928000000000001    0.6615999999999997    0.7606999999999998 # O21
  0.1497000000000001    0.5792999999999999    0.9805999999999999 # O22
  0.0928000000000001    0.1616000000000002    0.2606999999999998 # O23
  0.1497000000000001    0.0793000000000000    0.4806000000000000 # O24
  0.5883999999999997    0.8428000000000000    0.5106999999999997 # O25
  0.6706999999999999    0.8997000000000001    0.7305999999999998 # O26
  0.5883999999999997    0.3428000000000000    0.0107000000000001 # O27
  0.6706999999999999    0.3996999999999997    0.2306000000000000 # O28
  0.0884000000000001    0.8427999999999997    0.0107000000000001 # O29
  0.1707000000000000    0.8996999999999997    0.2306000000000000 # O30
  0.0884000000000001    0.3428000000000000    0.5106999999999997 # O31
  0.1707000000000000    0.3997000000000000    0.7305999999999998 # O32
  0.6572000000000002    0.9893000000000001    0.5883999999999997 # O33
  0.6002999999999998    0.7693999999999999    0.6706999999999999 # O34
  0.6571999999999998    0.4893000000000001    0.0884000000000001 # O35
  0.6002999999999998    0.2694000000000000    0.1707000000000000 # O36
  0.1571999999999999    0.9892999999999997    0.0884000000000001 # O37
  0.1002999999999999    0.7693999999999999    0.1707000000000000 # O38
  0.1571999999999999    0.4893000000000001    0.5883999999999997 # O39
  0.1002999999999999    0.2694000000000000    0.6706999999999999 # O40
  0.4072000000000000    0.6615999999999997    0.7393000000000002 # O41
  0.3502999999999998    0.5792999999999999    0.5193999999999999 # O42
  0.4072000000000000    0.1616000000000002    0.2392999999999998 # O43
  0.3502999999999998    0.0793000000000000    0.0194000000000000 # O44
  0.9071999999999999    0.6615999999999997    0.2392999999999998 # O45
  0.8502999999999999    0.5792999999999999    0.0194000000000000 # O46
  0.9071999999999999    0.1616000000000002    0.7393000000000002 # O47
  0.8502999999999999    0.0793000000000000    0.5193999999999999 # O48
  0.6571999999999998    0.5106999999999997    0.9115999999999999 # O49
  0.6002999999999998    0.7305999999999998    0.8292999999999998 # O50
  0.6571999999999998    0.0107000000000001    0.4115999999999999 # O51
  0.6002999999999998    0.2306000000000000    0.3293000000000000 # O52
  0.1571999999999999    0.5106999999999997    0.4115999999999999 # O53
  0.1002999999999999    0.7305999999999998    0.3293000000000000 # O54
  0.1571999999999999    0.0107000000000001    0.9115999999999999 # O55
  0.1002999999999999    0.2306000000000000    0.8292999999999998 # O56
  0.5106999999999997    0.5884000000000001    0.8427999999999997 # O57
  0.7305999999999998    0.6706999999999999    0.8996999999999997 # O58
  0.5106999999999997    0.0884000000000001    0.3428000000000000 # O59
  0.7305999999999998    0.1707000000000000    0.3996999999999997 # O60
  0.0107000000000001    0.5883999999999997    0.3428000000000000 # O61
  0.2306000000000000    0.6706999999999999    0.3996999999999997 # O62
  0.0107000000000001    0.0884000000000001    0.8427999999999997 # O63
  0.2306000000000000    0.1707000000000000    0.8996999999999997 # O64
  0.5928000000000001    0.3384000000000001    0.7393000000000002 # O65
  0.6496999999999997    0.4207000000000000    0.5193999999999999 # O66
  0.5928000000000001    0.8383999999999997    0.2392999999999998 # O67
  0.6496999999999997    0.9206999999999999    0.0194000000000000 # O68
  0.0928000000000001    0.3383999999999997    0.2392999999999998 # O69
  0.1497000000000001    0.4207000000000000    0.0194000000000000 # O70
  0.0928000000000001    0.8384000000000000    0.7393000000000002 # O71
  0.1497000000000001    0.9206999999999999    0.5193999999999999 # O72
  0.9892999999999997    0.5884000000000001    0.6571999999999998 # O73
  0.7693999999999999    0.6706999999999999    0.6002999999999998 # O74
  0.9892999999999997    0.0884000000000001    0.1571999999999999 # O75
  0.7693999999999999    0.1707000000000000    0.1002999999999999 # O76
  0.4893000000000001    0.5883999999999997    0.1571999999999999 # O77
  0.2694000000000000    0.6706999999999999    0.1002999999999999 # O78
  0.4893000000000001    0.0884000000000001    0.6571999999999998 # O79
  0.2694000000000000    0.1707000000000000    0.6002999999999998 # O80
  0.2606999999999998    0.4072000000000000    0.3383999999999997 # O81
  0.4806000000000000    0.3502999999999998    0.4207000000000000 # O82
  0.2607000000000001    0.9071999999999999    0.8383999999999997 # O83
  0.4806000000000000    0.8502999999999999    0.9206999999999999 # O84
  0.7606999999999998    0.4072000000000000    0.8383999999999997 # O85
  0.9805999999999999    0.3502999999999998    0.9206999999999999 # O86
  0.7606999999999998    0.9071999999999999    0.3383999999999997 # O87
  0.9805999999999999    0.8502999999999999    0.4207000000000000 # O88
  0.3383999999999997    0.2607000000000001    0.4072000000000000 # O89
  0.4207000000000000    0.4806000000000000    0.3502999999999998 # O90
  0.3384000000000001    0.7606999999999998    0.9071999999999999 # O91
  0.4207000000000000    0.9805999999999999    0.8502999999999999 # O92
  0.8383999999999997    0.2607000000000001    0.9071999999999999 # O93
  0.9206999999999999    0.4806000000000000    0.8502999999999999 # O94
  0.8383999999999997    0.7606999999999998    0.4072000000000000 # O95
  0.9206999999999999    0.9805999999999999    0.3502999999999998 # O96
  0.6615999999999997    0.7393000000000002    0.4072000000000000 # O97
  0.5792999999999999    0.5193999999999999    0.3502999999999998 # O98
  0.6615999999999997    0.2393000000000002    0.9071999999999999 # O99
  0.5792999999999999    0.0194000000000000    0.8502999999999999 # O100
  0.1616000000000002    0.7393000000000002    0.9071999999999999 # O101
  0.0793000000000000    0.5193999999999999    0.8502999999999999 # O102
  0.1616000000000002    0.2393000000000002    0.4072000000000000 # O103
  0.0793000000000000    0.0194000000000000    0.3502999999999998 # O104
  0.2607000000000001    0.5928000000000001    0.6615999999999997 # O105
  0.4806000000000000    0.6497000000000001    0.5792999999999999 # O106
  0.2606999999999998    0.0928000000000001    0.1615999999999999 # O107
  0.4806000000000000    0.1497000000000001    0.0793000000000000 # O108
  0.7606999999999998    0.5928000000000001    0.1615999999999999 # O109
  0.9805999999999999    0.6496999999999997    0.0793000000000000 # O110
  0.7606999999999998    0.0928000000000001    0.6615999999999997 # O111
  0.9805999999999999    0.1497000000000001    0.5792999999999999 # O112
  0.6615999999999997    0.2607000000000001    0.5928000000000001 # O113
  0.5792999999999999    0.4806000000000000    0.6496999999999997 # O114
  0.6615999999999997    0.7606999999999998    0.0928000000000001 # O115
  0.5792999999999999    0.9805999999999999    0.1497000000000001 # O116
  0.1616000000000002    0.2606999999999998    0.0928000000000001 # O117
  0.0793000000000000    0.4806000000000000    0.1497000000000001 # O118
  0.1616000000000002    0.7606999999999998    0.5928000000000001 # O119
  0.0793000000000000    0.9805999999999999    0.6496999999999997 # O120
  0.7393000000000002    0.5928000000000001    0.3383999999999997 # O121
  0.5193999999999999    0.6496999999999997    0.4207000000000000 # O122
  0.7393000000000002    0.0928000000000001    0.8383999999999997 # O123
  0.5193999999999999    0.1497000000000001    0.9206999999999999 # O124
  0.2393000000000002    0.5928000000000001    0.8383999999999997 # O125
  0.0194000000000000    0.6497000000000001    0.9206999999999999 # O126
  0.2393000000000002    0.0928000000000001    0.3383999999999997 # O127
  0.0194000000000000    0.1497000000000001    0.4207000000000000 # O128
  0.7393000000000002    0.4072000000000000    0.6615999999999997 # O129
  0.5193999999999999    0.3502999999999998    0.5792999999999999 # O130
  0.7393000000000002    0.9071999999999999    0.1615999999999999 # O131
  0.5193999999999999    0.8502999999999999    0.0793000000000000 # O132
  0.2393000000000002    0.4072000000000000    0.1615999999999999 # O133
  0.0194000000000000    0.3502999999999998    0.0793000000000000 # O134
  0.2393000000000002    0.9071999999999999    0.6615999999999997 # O135
  0.0194000000000000    0.8502999999999999    0.5792999999999999 # O136
  0.3384000000000001    0.7393000000000002    0.5928000000000001 # O137
  0.4207000000000000    0.5193999999999999    0.6496999999999997 # O138
  0.3383999999999997    0.2392999999999998    0.0928000000000001 # O139
  0.4207000000000000    0.0194000000000000    0.1497000000000001 # O140
  0.8383999999999997    0.7393000000000002    0.0928000000000001 # O141
  0.9206999999999999    0.5193999999999999    0.1497000000000001 # O142
  0.8383999999999997    0.2393000000000002    0.5928000000000001 # O143
  0.9206999999999999    0.0194000000000000    0.6496999999999997 # O144
  0.5884000000000001    0.6572000000000002    0.9892999999999997 # O145
  0.6706999999999999    0.6003000000000002    0.7693999999999999 # O146
  0.5883999999999997    0.1571999999999999    0.4893000000000001 # O147
  0.6706999999999999    0.1002999999999999    0.2694000000000000 # O148
  0.0884000000000001    0.6571999999999998    0.4893000000000001 # O149
  0.1707000000000000    0.6002999999999998    0.2694000000000000 # O150
  0.0884000000000001    0.1571999999999999    0.9892999999999997 # O151
  0.1707000000000000    0.1002999999999999    0.7693999999999999 # O152
  0.9116000000000001    0.8428000000000000    0.9892999999999997 # O153
  0.8292999999999998    0.8997000000000001    0.7693999999999999 # O154
  0.9115999999999999    0.3428000000000000    0.4893000000000001 # O155
  0.8292999999999998    0.3997000000000000    0.2694000000000000 # O156
  0.4115999999999999    0.8427999999999997    0.4893000000000001 # O157
  0.3293000000000000    0.8996999999999997    0.2694000000000000 # O158
  0.4115999999999999    0.3428000000000000    0.9892999999999997 # O159
  0.3293000000000000    0.3997000000000000    0.7693999999999999 # O160
  0.8427999999999997    0.5106999999999997    0.5883999999999997 # O161
  0.8996999999999997    0.7305999999999998    0.6706999999999999 # O162
  0.8427999999999997    0.0107000000000001    0.0884000000000001 # O163
  0.8996999999999997    0.2306000000000000    0.1707000000000000 # O164
  0.3428000000000000    0.5106999999999997    0.0884000000000001 # O165
  0.3997000000000000    0.7305999999999998    0.1707000000000000 # O166
  0.3428000000000000    0.0107000000000001    0.5883999999999997 # O167
  0.3997000000000000    0.2306000000000000    0.6706999999999999 # O168
  0.8428000000000000    0.9893000000000001    0.9115999999999999 # O169
  0.8996999999999997    0.7693999999999999    0.8292999999999998 # O170
  0.8427999999999997    0.4893000000000001    0.4115999999999999 # O171
  0.8996999999999997    0.2694000000000000    0.3293000000000000 # O172
  0.3428000000000000    0.9892999999999997    0.4115999999999999 # O173
  0.3997000000000000    0.7693999999999999    0.3293000000000000 # O174
  0.3428000000000000    0.4893000000000001    0.9115999999999999 # O175
  0.3997000000000000    0.2694000000000000    0.8292999999999998 # O176
  0.5106999999999997    0.9116000000000001    0.6571999999999998 # O177
  0.7305999999999998    0.8292999999999998    0.6002999999999998 # O178
  0.5106999999999997    0.4115999999999999    0.1571999999999999 # O179
  0.7305999999999998    0.3293000000000000    0.1002999999999999 # O180
  0.0107000000000001    0.9115999999999999    0.1571999999999999 # O181
  0.2306000000000000    0.8292999999999998    0.1002999999999999 # O182
  0.0107000000000001    0.4115999999999999    0.6571999999999998 # O183
  0.2306000000000000    0.3293000000000000    0.6002999999999998 # O184
  0.9892999999999997    0.9116000000000001    0.8427999999999997 # O185
  0.7693999999999999    0.8292999999999998    0.8996999999999997 # O186
  0.9892999999999997    0.4115999999999999    0.3428000000000000 # O187
  0.7693999999999999    0.3293000000000000    0.3996999999999997 # O188
  0.4893000000000001    0.9115999999999999    0.3428000000000000 # O189
  0.2694000000000000    0.8292999999999998    0.3996999999999997 # O190
  0.4893000000000001    0.4115999999999999    0.8427999999999997 # O191
  0.2694000000000000    0.3293000000000000    0.8996999999999997 # O192
  0.4508999999999999    0.3723999999999998    0.2342999999999999 # H1
  0.4051000000000000    0.2775000000000002    0.2595999999999998 # H2
  0.3575000000000001    0.4712999999999998    0.5067999999999999 # H3
  0.3215000000000001    0.3882999999999999    0.5223999999999999 # H4
  0.4509000000000002    0.8723999999999997    0.7342999999999998 # H5
  0.4051000000000000    0.7775000000000002    0.7596000000000001 # H6
  0.3575000000000001    0.9713000000000002    1.0067999999999997 # H7
  0.3215000000000001    0.8882999999999999    1.0223999999999998 # H8
  0.9508999999999996    0.3724000000000002    0.7342999999999998 # H9
  0.9050999999999999    0.2775000000000002    0.7596000000000001 # H10
  0.8575000000000000    0.4713000000000002    1.0067999999999997 # H11
  0.8215000000000000    0.3882999999999999    1.0223999999999998 # H12
  0.9508999999999996    0.8723999999999997    0.2342999999999999 # H13
  0.9050999999999999    0.7775000000000002    0.2595999999999998 # H14
  0.8575000000000000    0.9713000000000002    0.5067999999999999 # H15
  0.8215000000000000    0.8882999999999999    0.5223999999999999 # H16
  0.8775999999999996    0.7008999999999999    0.4842999999999999 # H17
  0.9724999999999997    0.6550999999999998    0.5095999999999997 # H18
  0.7786999999999997    0.6074999999999998    0.7567999999999998 # H19
  0.8616999999999997    0.5715000000000001    0.7723999999999998 # H20
  0.8775999999999996    0.2009000000000002   -0.0157000000000001 # H21
  0.9724999999999997    0.1551000000000000    0.0095999999999998 # H22
  0.7786999999999997    0.1075000000000001    0.2567999999999999 # H23
  0.8616999999999997    0.0715000000000001    0.2723999999999999 # H24
  0.3776000000000001    0.7008999999999999   -0.0157000000000001 # H25
  0.4724999999999998    0.6550999999999998    0.0095999999999998 # H26
  0.2786999999999998    0.6074999999999998    0.2567999999999999 # H27
  0.3617000000000000    0.5715000000000001    0.2723999999999999 # H28
  0.3776000000000001    0.2009000000000002    0.4842999999999999 # H29
  0.4724999999999998    0.1551000000000000    0.5095999999999997 # H30
  0.2786999999999998    0.1075000000000001    0.7567999999999998 # H31
  0.3617000000000000    0.0715000000000001    0.7723999999999998 # H32
  0.5490999999999997    0.6275999999999996    0.2342999999999999 # H33
  0.5948999999999999    0.7224999999999997    0.2595999999999998 # H34
  0.6424999999999998    0.5286999999999997    0.5067999999999999 # H35
  0.6784999999999999    0.6116999999999999    0.5223999999999999 # H36
  0.5490999999999997    0.1276000000000001    0.7342999999999998 # H37
  0.5948999999999999    0.2225000000000001    0.7596000000000001 # H38
  0.6425000000000001    0.0287000000000002    1.0067999999999997 # H39
  0.6784999999999999    0.1117000000000001    1.0223999999999998 # H40
  0.0491000000000001    0.6276000000000000    0.7342999999999998 # H41
  0.0949000000000000    0.7225000000000001    0.7596000000000001 # H42
  0.1425000000000002    0.5287000000000001    1.0067999999999997 # H43
  0.1784999999999999    0.6116999999999999    1.0223999999999998 # H44
  0.0491000000000001    0.1276000000000001    0.2342999999999999 # H45
  0.0949000000000000    0.2225000000000001    0.2595999999999998 # H46
  0.1424999999999998    0.0287000000000002    0.5067999999999999 # H47
  0.1784999999999999    0.1117000000000001    0.5223999999999999 # H48
  0.6223999999999997    0.7990999999999997    0.4842999999999999 # H49
  0.5275000000000002    0.8448999999999999    0.5095999999999997 # H50
  0.7212999999999997    0.8925000000000002    0.7567999999999998 # H51
  0.6382999999999999    0.9284999999999999    0.7723999999999998 # H52
  0.6223999999999997    0.2990999999999998   -0.0157000000000001 # H53
  0.5275000000000002    0.3449000000000000    0.0095999999999998 # H54
  0.7212999999999997    0.3925000000000002    0.2567999999999999 # H55
  0.6382999999999999    0.4284999999999998    0.2723999999999999 # H56
  0.1223999999999999    0.7990999999999997   -0.0157000000000001 # H57
  0.0275000000000002    0.8448999999999999    0.0095999999999998 # H58
  0.2213000000000002    0.8924999999999998    0.2567999999999999 # H59
  0.1382999999999999    0.9284999999999999    0.2723999999999999 # H60
  0.1223999999999999    0.2990999999999998    0.4842999999999999 # H61
  0.0275000000000002    0.3449000000000000    0.5095999999999997 # H62
  0.2213000000000002    0.3925000000000002    0.7567999999999998 # H63
  0.1382999999999999    0.4285000000000002    0.7723999999999998 # H64
  0.7009000000000001    1.0157000000000000    0.6223999999999997 # H65
  0.6550999999999998    0.9904000000000002    0.5275000000000002 # H66
  0.6074999999999998    0.7431999999999996    0.7212999999999997 # H67
  0.5715000000000001    0.7276000000000000    0.6382999999999999 # H68
  0.7008999999999999    0.5157000000000000    0.1223999999999999 # H69
  0.6550999999999998    0.4903999999999998    0.0274999999999999 # H70
  0.6074999999999998    0.2432000000000001    0.2212999999999998 # H71
  0.5715000000000001    0.2276000000000000    0.1382999999999999 # H72
  0.2009000000000002    1.0157000000000000    0.1223999999999999 # H73
  0.1551000000000000    0.9903999999999998    0.0274999999999999 # H74
  0.1075000000000001    0.7431999999999996    0.2212999999999998 # H75
  0.0715000000000001    0.7276000000000000    0.1382999999999999 # H76
  0.2009000000000002    0.5157000000000000    0.6223999999999997 # H77
  0.1551000000000000    0.4903999999999998    0.5275000000000002 # H78
  0.1075000000000001    0.2432000000000001    0.7212999999999997 # H79
  0.0715000000000001    0.2276000000000000    0.6382999999999999 # H80
  0.4509000000000002    0.6276000000000000    0.7656999999999999 # H81
  0.4051000000000000    0.7225000000000001    0.7403999999999997 # H82
  0.3575000000000001    0.5286999999999997    0.4931999999999997 # H83
  0.3215000000000001    0.6116999999999996    0.4776000000000001 # H84
  0.4508999999999999    0.1276000000000001    0.2657000000000000 # H85
  0.4051000000000000    0.2225000000000001    0.2403999999999998 # H86
  0.3574999999999998    0.0286999999999998   -0.0067999999999999 # H87
  0.3215000000000001    0.1117000000000001   -0.0223999999999999 # H88
  0.9508999999999996    0.6275999999999996    0.2657000000000000 # H89
  0.9050999999999999    0.7224999999999997    0.2403999999999998 # H90
  0.8574999999999997    0.5286999999999997   -0.0067999999999999 # H91
  0.8215000000000000    0.6116999999999996   -0.0223999999999999 # H92
  0.9508999999999996    0.1276000000000001    0.7656999999999999 # H93
  0.9050999999999999    0.2225000000000001    0.7403999999999997 # H94
  0.8574999999999997    0.0287000000000002    0.4931999999999997 # H95
  0.8215000000000000    0.1117000000000001    0.4776000000000001 # H96
  0.7008999999999999    0.4842999999999999    0.8775999999999996 # H97
  0.6550999999999998    0.5096000000000002    0.9724999999999997 # H98
  0.6074999999999998    0.7568000000000001    0.7786999999999997 # H99
  0.5715000000000001    0.7723999999999998    0.8616999999999997 # H100
  0.7008999999999999   -0.0157000000000001    0.3775999999999997 # H101
  0.6550999999999998    0.0096000000000002    0.4724999999999998 # H102
  0.6074999999999998    0.2568000000000002    0.2786999999999998 # H103
  0.5715000000000001    0.2723999999999999    0.3617000000000000 # H104
  0.2009000000000002    0.4842999999999999    0.3775999999999997 # H105
  0.1551000000000000    0.5095999999999997    0.4724999999999998 # H106
  0.1075000000000001    0.7567999999999998    0.2786999999999998 # H107
  0.0715000000000001    0.7723999999999998    0.3617000000000000 # H108
  0.2009000000000002   -0.0157000000000001    0.8775999999999996 # H109
  0.1551000000000000    0.0096000000000002    0.9724999999999997 # H110
  0.1075000000000001    0.2568000000000002    0.7786999999999997 # H111
  0.0715000000000001    0.2723999999999999    0.8616999999999997 # H112
  0.4842999999999999    0.6224000000000001    0.7990999999999997 # H113
  0.5095999999999997    0.5275000000000002    0.8448999999999999 # H114
  0.7567999999999998    0.7213000000000001    0.8924999999999998 # H115
  0.7723999999999998    0.6382999999999999    0.9284999999999999 # H116
  0.4842999999999999    0.1223999999999999    0.2990999999999998 # H117
  0.5095999999999997    0.0275000000000002    0.3449000000000000 # H118
  0.7567999999999998    0.2213000000000002    0.3925000000000002 # H119
  0.7723999999999998    0.1382999999999999    0.4284999999999998 # H120
 -0.0157000000000001    0.6223999999999997    0.2990999999999998 # H121
  0.0096000000000002    0.5275000000000002    0.3449000000000000 # H122
  0.2568000000000002    0.7212999999999997    0.3925000000000002 # H123
  0.2723999999999999    0.6382999999999999    0.4284999999999998 # H124
 -0.0157000000000001    0.1224000000000002    0.7990999999999997 # H125
  0.0096000000000002    0.0275000000000002    0.8448999999999999 # H126
  0.2568000000000002    0.2213000000000002    0.8924999999999998 # H127
  0.2723999999999999    0.1382999999999999    0.9284999999999999 # H128
  0.5490999999999997    0.3724000000000002    0.7656999999999999 # H129
  0.5948999999999999    0.2775000000000002    0.7403999999999997 # H130
  0.6424999999999998    0.4712999999999998    0.4931999999999997 # H131
  0.6784999999999999    0.3882999999999999    0.4776000000000001 # H132
  0.5490999999999997    0.8723999999999997    0.2657000000000000 # H133
  0.5948999999999999    0.7775000000000002    0.2403999999999998 # H134
  0.6425000000000001    0.9713000000000002   -0.0067999999999999 # H135
  0.6784999999999999    0.8882999999999999   -0.0223999999999999 # H136
  0.0491000000000001    0.3724000000000002    0.2657000000000000 # H137
  0.0949000000000000    0.2775000000000002    0.2403999999999998 # H138
  0.1424999999999998    0.4712999999999998   -0.0067999999999999 # H139
  0.1784999999999999    0.3882999999999999   -0.0223999999999999 # H140
  0.0491000000000001    0.8723999999999997    0.7656999999999999 # H141
  0.0949000000000000    0.7775000000000002    0.7403999999999997 # H142
  0.1425000000000002    0.9713000000000002    0.4931999999999997 # H143
  0.1784999999999999    0.8882999999999999    0.4776000000000001 # H144
  1.0157000000000000    0.6224000000000001    0.7008999999999999 # H145
  0.9903999999999998    0.5275000000000002    0.6550999999999998 # H146
  0.7431999999999996    0.7213000000000001    0.6074999999999998 # H147
  0.7276000000000000    0.6382999999999999    0.5715000000000001 # H148
  1.0157000000000000    0.1223999999999999    0.2009000000000002 # H149
  0.9903999999999998    0.0275000000000002    0.1551000000000000 # H150
  0.7431999999999996    0.2212999999999998    0.1075000000000001 # H151
  0.7276000000000000    0.1382999999999999    0.0715000000000001 # H152
  0.5157000000000000    0.6223999999999997    0.2009000000000002 # H153
  0.4903999999999998    0.5275000000000002    0.1551000000000000 # H154
  0.2432000000000001    0.7212999999999997    0.1075000000000001 # H155
  0.2276000000000000    0.6382999999999999    0.0715000000000001 # H156
  0.5157000000000000    0.1224000000000002    0.7008999999999999 # H157
  0.4903999999999998    0.0275000000000002    0.6550999999999998 # H158
  0.2432000000000001    0.2213000000000002    0.6074999999999998 # H159
  0.2276000000000000    0.1382999999999999    0.5715000000000001 # H160
  0.2342999999999999    0.4509000000000002    0.3723999999999998 # H161
  0.2595999999999998    0.4051000000000000    0.2775000000000002 # H162
  0.5068000000000001    0.3575000000000001    0.4712999999999998 # H163
  0.5223999999999999    0.3215000000000001    0.3882999999999999 # H164
  0.2342999999999999    0.9509000000000000    0.8723999999999997 # H165
  0.2596000000000001    0.9050999999999999    0.7775000000000002 # H166
  0.5068000000000001    0.8575000000000000    0.9713000000000002 # H167
  0.5223999999999999    0.8215000000000000    0.8882999999999999 # H168
  0.7342999999999998    0.4509000000000002    0.8723999999999997 # H169
  0.7596000000000001    0.4051000000000000    0.7775000000000002 # H170
  1.0068000000000001    0.3575000000000001    0.9713000000000002 # H171
  1.0223999999999998    0.3215000000000001    0.8882999999999999 # H172
  0.7342999999999998    0.9508999999999996    0.3723999999999998 # H173
  0.7596000000000001    0.9050999999999999    0.2775000000000002 # H174
  1.0067999999999997    0.8574999999999997    0.4712999999999998 # H175
  1.0223999999999998    0.8215000000000000    0.3882999999999999 # H176
  0.3723999999999998    0.2342999999999999    0.4508999999999999 # H177
  0.2775000000000002    0.2596000000000001    0.4051000000000000 # H178
  0.4712999999999998    0.5068000000000001    0.3574999999999998 # H179
  0.3882999999999999    0.5223999999999999    0.3215000000000001 # H180
  0.3724000000000002    0.7342999999999998    0.9508999999999996 # H181
  0.2775000000000002    0.7596000000000001    0.9050999999999999 # H182
  0.4713000000000002    1.0068000000000001    0.8574999999999997 # H183
  0.3882999999999999    1.0223999999999998    0.8215000000000000 # H184
  0.8723999999999997    0.2342999999999999    0.9508999999999996 # H185
  0.7775000000000002    0.2596000000000001    0.9050999999999999 # H186
  0.9713000000000002    0.5068000000000001    0.8574999999999997 # H187
  0.8882999999999999    0.5223999999999999    0.8215000000000000 # H188
  0.8723999999999997    0.7342999999999998    0.4508999999999999 # H189
  0.7775000000000002    0.7596000000000001    0.4051000000000000 # H190
  0.9713000000000002    1.0067999999999997    0.3574999999999998 # H191
  0.8882999999999999    1.0223999999999998    0.3215000000000001 # H192