$cell vectors
1.0
 12.7529939991807950    0.0000000000000000    0.0000000000000000
  0.0000000000000000   12.7529939991807950    0.0000000000000000
  0.0000000000000000    0.0000000000000000   12.7529939991807950
 32 32
Direct
  0.1960000000000002    0.4360000000000001    0.9949999999999998 # Sr1
  0.4769999999999998    0.2939999999999999    0.0629999999999999 # Sr2
  0.1859999999999998    0.1859999999999998    0.1859999999999998 # Sr3
  0.8189999999999998    0.8189999999999998    0.8189999999999998 # Sr4
  0.9949999999999998    0.1959999999999998    0.4360000000000001 # Sr5
  0.0629999999999999    0.4769999999999998    0.2939999999999999 # Sr6
  0.4360000000000001    0.9949999999999998    0.1959999999999998 # Sr7
  0.2939999999999999    0.0629999999999999    0.4769999999999998 # Sr8
  0.0640000000000000    0.0050000000000002    0.6960000000000001 # Sr9
  0.2060000000000002    0.9369999999999999    0.9770000000000001 # Sr10
  0.3139999999999999    0.8140000000000001    0.6860000000000001 # Sr11
  0.6810000000000002    0.1810000000000000    0.3189999999999997 # Sr12
  0.4950000000000000    0.3039999999999999    0.5640000000000003 # Sr13
  0.5630000000000002    0.0229999999999999    0.7060000000000000 # Sr14
  0.6860000000000001    0.3139999999999999    0.8140000000000001 # Sr15
  0.3190000000000001    0.6810000000000002    0.1810000000000000 # Sr16
  0.5640000000000003    0.4950000000000000    0.3039999999999999 # Sr17
  0.7060000000000000    0.5629999999999997    0.0229999999999999 # Sr18
  0.8140000000000001    0.6860000000000001    0.3139999999999999 # Sr19
  0.1810000000000000    0.3190000000000001    0.6810000000000002 # Sr20
  0.5049999999999999    0.8040000000000000    0.9359999999999999 # Sr21
  0.4369999999999998    0.5230000000000001    0.7940000000000000 # Sr22
  0.0050000000000002    0.6960000000000001    0.0640000000000000 # Sr23
  0.9369999999999999    0.9770000000000001    0.2059999999999998 # Sr24
  0.9359999999999999    0.5049999999999999    0.8040000000000000 # Sr25
  0.7940000000000000    0.4369999999999998    0.5230000000000001 # Sr26
  0.3039999999999999    0.5640000000000003    0.4950000000000000 # Sr27
  0.0229999999999999    0.7060000000000000    0.5629999999999997 # Sr28
  0.6960000000000001    0.0640000000000000    0.0050000000000002 # Sr29
  0.9770000000000001    0.2060000000000002    0.9369999999999999 # Sr30
  0.8040000000000000    0.9359999999999999    0.5049999999999999 # Sr31
  0.5230000000000001    0.7940000000000000    0.4369999999999998 # Sr32
  0.2410000000000000    0.8110000000000003    0.4260000000000002 # Al1
  0.2520000000000001    0.3210000000000000    0.4160000000000001 # Al2
  0.5760000000000001    0.5760000000000001    0.5760000000000001 # Al3
  0.9619999999999997    0.9619999999999997    0.9619999999999997 # Al4
  0.4260000000000002    0.2410000000000000    0.8110000000000003 # Al5
  0.4160000000000001    0.2520000000000001    0.3210000000000000 # Al6
  0.8110000000000003    0.4260000000000002    0.2410000000000000 # Al7
  0.3210000000000000    0.4160000000000001    0.2520000000000001 # Al8
  0.6889999999999998    0.5740000000000002    0.7409999999999999 # Al9
  0.1790000000000002    0.5840000000000002    0.7520000000000000 # Al10
  0.9239999999999999    0.4239999999999999    0.0759999999999999 # Al11
  0.5379999999999999    0.0380000000000002    0.4620000000000000 # Al12
  0.9259999999999994    0.2590000000000002    0.1889999999999998 # Al13
  0.9159999999999998    0.2480000000000000    0.6789999999999998 # Al14
  0.0760000000000003    0.9239999999999999    0.4239999999999999 # Al15
  0.4620000000000000    0.5379999999999999    0.0380000000000002 # Al16
  0.1889999999999998    0.9259999999999994    0.2590000000000002 # Al17
  0.6789999999999998    0.9159999999999998    0.2480000000000000 # Al18
  0.4240000000000003    0.0760000000000003    0.9239999999999999 # Al19
  0.0380000000000002    0.4620000000000000    0.5379999999999999 # Al20
  0.0740000000000000    0.7589999999999999    0.3109999999999999 # Al21
  0.0840000000000000    0.7480000000000002    0.8209999999999997 # Al22
  0.5740000000000002    0.7410000000000001    0.6889999999999998 # Al23
  0.5840000000000002    0.7520000000000000    0.1789999999999998 # Al24
  0.3109999999999999    0.0740000000000000    0.7589999999999999 # Al25
  0.8209999999999997    0.0840000000000000    0.7479999999999998 # Al26
  0.2590000000000002    0.1890000000000002    0.9259999999999994 # Al27
  0.2480000000000000    0.6789999999999998    0.9159999999999998 # Al28
  0.7409999999999999    0.6889999999999998    0.5740000000000002 # Al29
  0.7520000000000000    0.1790000000000002    0.5840000000000002 # Al30
  0.7589999999999999    0.3109999999999999    0.0740000000000000 # Al31
  0.7479999999999998    0.8209999999999997    0.0840000000000000 # Al32
