$cell vectors
1.0
 10.2799951628305930    0.0000000000000000    0.0000000000000000
  0.0000000000000000   10.2799951628305930    0.0000000000000000
  0.0000000000000000    0.0000000000000000   10.2799951628305930
 20 4 48
Direct
  0.1250000000000002    0.1989000000000002    0.4489000000000000 # Te1
  0.0521000000000001    0.0521000000000001    0.0521000000000001 # Te2
  0.0511000000000002    0.8749999999999999    0.6988999999999999 # Te3
  0.1979000000000003    0.8021000000000001    0.3020999999999999 # Te4
  0.4479000000000001    0.9478999999999996    0.5521000000000004 # Te5
  0.4489000000000000    0.1250000000000002    0.1988999999999997 # Te6
  0.3750000000000000    0.8011000000000003    0.9488999999999999 # Te7
  0.3020999999999999    0.1979000000000003    0.8021000000000001 # Te8
  0.6249999999999998    0.3011000000000000    0.5511000000000005 # Te9
  0.5521000000000004    0.4479000000000001    0.9478999999999996 # Te10
  0.8749999999999999    0.6988999999999999    0.0511000000000002 # Te11
  0.8020999999999996    0.3020999999999999    0.1978999999999998 # Te12
  0.1989000000000002    0.4489000000000000    0.1250000000000002 # Te13
  0.9478999999999996    0.5521000000000004    0.4479000000000001 # Te14
  0.8011000000000003    0.9488999999999999    0.3750000000000000 # Te15
  0.3011000000000000    0.5510999999999998    0.6249999999999998 # Te16
  0.9489000000000002    0.3750000000000000    0.8011000000000003 # Te17
  0.5510999999999998    0.6249999999999998    0.3011000000000000 # Te18
  0.6988999999999999    0.0511000000000002    0.8749999999999999 # Te19
  0.6979000000000000    0.6979000000000000    0.6979000000000000 # Te20
  0.3750000000000000    0.3750000000000000    0.3750000000000000 # Ca1
  0.1250000000000002    0.6249999999999998    0.8749999999999999 # Ca2
  0.6249999999999998    0.8749999999999999    0.1250000000000002 # Ca3
  0.8749999999999999    0.1250000000000002    0.6249999999999998 # Ca4
  0.2719999999999999    0.9530000000000001    0.1204999999999997 # Al1
  0.7426000000000004    0.7134000000000003    0.4445000000000002 # Al2
  0.2970000000000002    0.0220000000000000    0.3705000000000001 # Al3
  0.5366000000000001    0.4926000000000000    0.6945000000000000 # Al4
  0.2279999999999998    0.0469999999999999    0.6204999999999999 # Al5
  0.7573999999999997    0.2866000000000002    0.9445000000000000 # Al6
  0.2030000000000000    0.9780000000000004    0.8705000000000003 # Al7
  0.9633999999999999    0.5073999999999999    0.1944999999999998 # Al8
  0.5220000000000004    0.1295000000000001    0.7029999999999996 # Al9
  0.9926000000000004    0.8055000000000001    0.4633999999999999 # Al10
  0.7720000000000001    0.5470000000000000    0.8794999999999997 # Al11
  0.2426000000000001    0.7865999999999999    0.5555000000000003 # Al12
  0.0220000000000000    0.3705000000000001    0.2970000000000002 # Al13
  0.4926000000000000    0.6945000000000000    0.5366000000000001 # Al14
  0.8704999999999998    0.2030000000000000    0.9779999999999999 # Al15
  0.1945000000000003    0.9633999999999999    0.5073999999999999 # Al16
  0.7280000000000000    0.4529999999999999    0.3794999999999999 # Al17
  0.2574000000000001    0.2134000000000000    0.0555000000000001 # Al18
  0.1295000000000001    0.7030000000000002    0.5219999999999997 # Al19
  0.8055000000000001    0.4633999999999999    0.9926000000000004 # Al20
  0.1205000000000002    0.2720000000000004    0.9530000000000001 # Al21
  0.4445000000000002    0.7426000000000004    0.7134000000000003 # Al22
  0.9530000000000001    0.1205000000000002    0.2719999999999999 # Al23
  0.7134000000000003    0.4445000000000002    0.7425999999999999 # Al24
  0.5470000000000000    0.8794999999999997    0.7720000000000001 # Al25
  0.7865999999999999    0.5555000000000003    0.2426000000000001 # Al26
  0.6204999999999999    0.2279999999999998    0.0469999999999999 # Al27
  0.9445000000000000    0.7573999999999997    0.2865999999999997 # Al28
  0.0469999999999999    0.6204999999999999    0.2279999999999998 # Al29
  0.2866000000000002    0.9445000000000000    0.7573999999999997 # Al30
  0.3794999999999999    0.7280000000000000    0.4529999999999999 # Al31
  0.0555000000000001    0.2574000000000001    0.2134000000000000 # Al32
  0.8794999999999997    0.7720000000000001    0.5470000000000000 # Al33
  0.5555000000000003    0.2426000000000001    0.7865999999999999 # Al34
  0.4529999999999999    0.3794999999999999    0.7280000000000000 # Al35
  0.2134000000000000    0.0555000000000001    0.2574000000000001 # Al36
  0.7029999999999996    0.5220000000000004    0.1295000000000001 # Al37
  0.4634000000000004    0.9926000000000004    0.8055000000000001 # Al38
  0.7969999999999998    0.4780000000000001    0.6294999999999998 # Al39
  0.0365999999999999    0.0074000000000002    0.3054999999999999 # Al40
  0.9779999999999999    0.8704999999999998    0.2030000000000000 # Al41
  0.5073999999999999    0.1945000000000003    0.9633999999999999 # Al42
  0.4780000000000001    0.6294999999999998    0.7969999999999998 # Al43
  0.0074000000000002    0.3054999999999999    0.0365999999999999 # Al44
  0.3705000000000001    0.2970000000000002    0.0220000000000000 # Al45
  0.6945000000000000    0.5366000000000001    0.4926000000000000 # Al46
  0.6294999999999998    0.7969999999999998    0.4780000000000001 # Al47
  0.3054999999999999    0.0365999999999999    0.0074000000000002 # Al48
