$cell vectors
1.0
  8.2939960973265503    0.0000000000000000    0.0000000000000000
  0.0000000000000000    8.2939960973265503    0.0000000000000000
  0.0000000000000000    0.0000000000000000    8.2939960973265503
 24 8 6 6 2
Direct
  0.1418000000000003    0.1403999999999999    0.4171000000000003 # O1
  0.6404000000000002    0.3582000000000000    0.0829000000000000 # O2
  0.8581999999999996    0.8596000000000000    0.4171000000000003 # O3
  0.3596000000000004    0.6418000000000000    0.0829000000000000 # O4
  0.3582000000000000    0.9171000000000000    0.3595999999999998 # O5
  0.1418000000000003    0.8596000000000000    0.5829000000000003 # O6
  0.3582000000000000    0.0829000000000000    0.6404000000000002 # O7
  0.0829000000000000    0.3596000000000004    0.6418000000000000 # O8
  0.8581999999999996    0.1403999999999999    0.5829000000000003 # O9
  0.9171000000000000    0.3596000000000004    0.3582000000000000 # O10
  0.4171000000000003    0.1418000000000003    0.1403999999999999 # O11
  0.1403999999999999    0.4171000000000003    0.1418000000000003 # O12
  0.8596000000000000    0.5829000000000003    0.1418000000000003 # O13
  0.4171000000000003    0.8582000000000004    0.8596000000000000 # O14
  0.8596000000000000    0.4171000000000003    0.8581999999999996 # O15
  0.5829000000000003    0.8581999999999996    0.1403999999999999 # O16
  0.5829000000000003    0.1418000000000003    0.8596000000000000 # O17
  0.1403999999999999    0.5829000000000003    0.8581999999999996 # O18
  0.3596000000000004    0.3582000000000000    0.9171000000000000 # O19
  0.6404000000000002    0.6418000000000000    0.9171000000000000 # O20
  0.6418000000000000    0.0829000000000000    0.3595999999999998 # O21
  0.6418000000000000    0.9171000000000000    0.6404000000000002 # O22
  0.0829000000000000    0.6404000000000002    0.3582000000000000 # O23
  0.9171000000000000    0.6404000000000002    0.6418000000000000 # O24
  0.1693000000000001    0.1693000000000001    0.1693000000000001 # Mn1
  0.6692999999999998    0.3307000000000002    0.3307000000000002 # Mn2
  0.8306999999999999    0.8306999999999999    0.1693000000000001 # Mn3
  0.3307000000000002    0.6692999999999998    0.3307000000000002 # Mn4
  0.1693000000000001    0.8306999999999999    0.8306999999999999 # Mn5
  0.3307000000000002    0.3307000000000002    0.6692999999999998 # Mn6
  0.8306999999999999    0.1693000000000001    0.8306999999999999 # Mn7
  0.6692999999999998    0.6693000000000003    0.6692999999999998 # Mn8
  0.0000000000000000    0.5000000000000003    0.2500000000000002 # Si1
  0.5000000000000003    0.7499999999999998    0.0000000000000000 # Si2
  0.0000000000000000    0.5000000000000003    0.7499999999999998 # Si3
  0.5000000000000003    0.2500000000000002    0.0000000000000000 # Si4
  0.2500000000000002    0.0000000000000000    0.5000000000000003 # Si5
  0.7499999999999998    0.0000000000000000    0.5000000000000003 # Si6
  0.5000000000000003    0.0000000000000000    0.2500000000000002 # Be1
  0.0000000000000000    0.7500000000000004    0.5000000000000003 # Be2
  0.5000000000000003    0.0000000000000000    0.7499999999999998 # Be3
  0.0000000000000000    0.2500000000000002    0.5000000000000003 # Be4
  0.2500000000000002    0.5000000000000003    0.0000000000000000 # Be5
  0.7499999999999998    0.5000000000000003    0.0000000000000000 # Be6
  0.5000000000000003    0.5000000000000003    0.5000000000000003 # S1
  0.0000000000000000    0.0000000000000000    0.0000000000000000 # S2
