$cell vectors
1.0
 10.1453952261655171    0.0000000000000000    0.0000000000000000
  0.0000000000000000   10.1453952261655171    0.0000000000000000
  0.0000000000000000    0.0000000000000000   10.1453952261655171
 24 2 40
Direct
  0.1758000000000000    0.3183000000000002    0.0160000000000001 # Bi1
  0.6758000000000003    0.8182999999999999    0.5160000000000000 # Bi2
  0.0160000000000001    0.1758000000000000    0.3183000000000002 # Bi3
  0.5160000000000000    0.6758000000000003    0.8182999999999999 # Bi4
  0.3183000000000002    0.0160000000000001    0.1758000000000000 # Bi5
  0.8182999999999999    0.5160000000000000    0.6757999999999997 # Bi6
  0.6817000000000003    0.9839999999999997    0.1758000000000000 # Bi7
  0.1817000000000001    0.4840000000000002    0.6757999999999997 # Bi8
  0.0160000000000001    0.8241999999999999    0.6816999999999998 # Bi9
  0.5160000000000000    0.3241999999999997    0.1817000000000001 # Bi10
  0.6817000000000003    0.0160000000000001    0.8241999999999999 # Bi11
  0.1817000000000001    0.5160000000000000    0.3242000000000002 # Bi12
  0.9839999999999997    0.8241999999999999    0.3183000000000002 # Bi13
  0.4840000000000002    0.3242000000000002    0.8182999999999999 # Bi14
  0.9839999999999997    0.1758000000000000    0.6816999999999998 # Bi15
  0.4840000000000002    0.6757999999999997    0.1817000000000001 # Bi16
  0.3183000000000002    0.9839999999999997    0.8241999999999999 # Bi17
  0.8182999999999999    0.4840000000000002    0.3242000000000002 # Bi18
  0.8241999999999999    0.6816999999999998    0.0160000000000001 # Bi19
  0.3242000000000002    0.1817000000000001    0.5160000000000000 # Bi20
  0.1758000000000000    0.6817000000000003    0.9839999999999997 # Bi21
  0.6757999999999997    0.1817000000000001    0.4840000000000002 # Bi22
  0.8241999999999999    0.3183000000000002    0.9839999999999997 # Bi23
  0.3242000000000002    0.8182999999999999    0.4840000000000002 # Bi24
  0.0000000000000000    0.0000000000000000    0.0000000000000000 # Ge1
  0.5000000000000003    0.5000000000000003    0.5000000000000003 # Ge2
  0.1349000000000000    0.2513999999999999    0.4866000000000000 # O1
  0.1953000000000001    0.1953000000000001    0.1953000000000001 # O2
 -0.1002000000000002   -0.1002000000000002   -0.1002000000000002 # O3
  0.6349000000000002    0.7514000000000001    0.9865999999999997 # O4
  0.6952999999999998    0.6952999999999998    0.6952999999999998 # O5
  0.3998000000000001    0.3998000000000001    0.3998000000000001 # O6
  0.4866000000000000    0.1349000000000000    0.2513999999999999 # O7
  0.9865999999999997    0.6349000000000002    0.7514000000000001 # O8
  0.2513999999999999    0.4866000000000000    0.1349000000000000 # O9
  0.7514000000000001    0.9865999999999997    0.6348999999999998 # O10
  0.7486000000000000    0.5134000000000001    0.1349000000000000 # O11
  0.8046999999999997    0.8046999999999997    0.1953000000000001 # O12
  0.1002000000000002    0.1002000000000002   -0.1002000000000002 # O13
  0.2485999999999999    0.0134000000000003    0.6348999999999998 # O14
  0.3047000000000001    0.3047000000000001    0.6952999999999998 # O15
  0.6002000000000000    0.6002000000000000    0.3998000000000001 # O16
  0.4866000000000000    0.8651000000000000    0.7486000000000000 # O17
  0.1953000000000001    0.8047000000000005    0.8046999999999997 # O18
 -0.1002000000000002    0.1002000000000002    0.1002000000000002 # O19
  0.9865999999999997    0.3651000000000002    0.2485999999999999 # O20
  0.6952999999999998    0.3047000000000001    0.3047000000000001 # O21
  0.3998000000000001    0.6002000000000000    0.6002000000000000 # O22
  0.7486000000000000    0.4866000000000000    0.8651000000000000 # O23
  0.8046999999999997    0.1953000000000001    0.8046999999999997 # O24
  0.1002000000000002   -0.1002000000000002    0.1002000000000002 # O25
  0.2485999999999999    0.9865999999999997    0.3650999999999997 # O26
  0.3047000000000001    0.6952999999999998    0.3047000000000001 # O27
  0.6002000000000000    0.3998000000000001    0.6002000000000000 # O28
  0.5134000000000001    0.8651000000000000    0.2513999999999999 # O29
  0.0134000000000003    0.3651000000000002    0.7514000000000001 # O30
  0.5134000000000001    0.1349000000000000    0.7486000000000000 # O31
  0.0133999999999998    0.6348999999999998    0.2485999999999999 # O32
  0.2513999999999999    0.5134000000000001    0.8651000000000000 # O33
  0.7514000000000001    0.0134000000000003    0.3650999999999997 # O34
  0.8651000000000000    0.7486000000000000    0.4866000000000000 # O35
  0.3651000000000002    0.2485999999999999    0.9865999999999997 # O36
  0.1349000000000000    0.7486000000000000    0.5134000000000001 # O37
  0.6348999999999998    0.2485999999999999    0.0133999999999998 # O38
  0.8651000000000000    0.2513999999999999    0.5134000000000001 # O39
  0.3651000000000002    0.7514000000000001    0.0133999999999998 # O40
