$cell vectors
1.0
 19.9099906315133381    0.0000000000000000    0.0000000000000000
  0.0000000000000000   19.9099906315133381    0.0000000000000000
  0.0000000000000000    0.0000000000000000   19.9099906315133381
 48 48 48 96 96
Direct
  0.1041000000000002    0.0000000000000000    0.0000000000000000 # Ta1
  0.1040999999999999    0.5000000000000002    0.4999999999999999 # Ta2
  0.6040999999999999    0.0000000000000000    0.4999999999999999 # Ta3
  0.6040999999999999    0.4999999999999999    0.0000000000000000 # Ta4
  0.2499999999999999    0.3540999999999999    0.2499999999999999 # Ta5
  0.2499999999999999    0.8540999999999999    0.7500000000000002 # Ta6
  0.7500000000000002    0.3541000000000002    0.7500000000000002 # Ta7
  0.7500000000000002    0.8540999999999999    0.2499999999999999 # Ta8
 -0.1040999999999999    0.0000000000000000    0.0000000000000000 # Ta9
 -0.1040999999999999    0.5000000000000002    0.4999999999999999 # Ta10
  0.3959000000000000    0.0000000000000000    0.4999999999999999 # Ta11
  0.3959000000000000    0.4999999999999999    0.0000000000000000 # Ta12
  0.2499999999999999    0.1459000000000000    0.2499999999999999 # Ta13
  0.2499999999999999    0.6459000000000003    0.7500000000000002 # Ta14
  0.7500000000000002    0.1459000000000000    0.7500000000000002 # Ta15
  0.7500000000000002    0.6458999999999999    0.2499999999999999 # Ta16
  0.3540999999999999    0.2499999999999999    0.2499999999999999 # Ta17
  0.3541000000000002    0.7500000000000002    0.7500000000000002 # Ta18
  0.8540999999999999    0.2499999999999999    0.7500000000000002 # Ta19
  0.8540999999999999    0.7500000000000002    0.2499999999999999 # Ta20
  0.2499999999999999    0.2499999999999999    0.1459000000000000 # Ta21
  0.2499999999999999    0.7500000000000002    0.6458999999999999 # Ta22
  0.7500000000000002    0.2499999999999999    0.6458999999999999 # Ta23
  0.7500000000000002    0.7500000000000002    0.1459000000000000 # Ta24
  0.2499999999999999    0.2499999999999999    0.3540999999999999 # Ta25
  0.2499999999999999    0.7500000000000002    0.8540999999999999 # Ta26
  0.7500000000000002    0.2499999999999999    0.8540999999999999 # Ta27
  0.7500000000000002    0.7500000000000002    0.3540999999999999 # Ta28
  0.0000000000000000    0.1040999999999999    0.0000000000000000 # Ta29
  0.0000000000000000    0.6041000000000001    0.4999999999999999 # Ta30
  0.4999999999999999    0.1040999999999999    0.4999999999999999 # Ta31
  0.4999999999999999    0.6040999999999999    0.0000000000000000 # Ta32
  0.0000000000000000    0.0000000000000000    0.1040999999999999 # Ta33
  0.0000000000000000    0.5000000000000002    0.6040999999999999 # Ta34
  0.4999999999999999    0.0000000000000000    0.6040999999999999 # Ta35
  0.4999999999999999    0.4999999999999999    0.1040999999999999 # Ta36
  0.0000000000000000   -0.1040999999999999    0.0000000000000000 # Ta37
  0.0000000000000000    0.3959000000000000    0.4999999999999999 # Ta38
  0.4999999999999999   -0.1040999999999999    0.4999999999999999 # Ta39
  0.4999999999999999    0.3959000000000000    0.0000000000000000 # Ta40
  0.0000000000000000    0.0000000000000000   -0.1040999999999999 # Ta41
  0.0000000000000000    0.4999999999999999    0.3959000000000000 # Ta42
  0.4999999999999999    0.0000000000000000    0.3959000000000000 # Ta43
  0.4999999999999999    0.4999999999999999   -0.1040999999999999 # Ta44
  0.1459000000000000    0.2499999999999999    0.2499999999999999 # Ta45
  0.1459000000000000    0.7500000000000002    0.7500000000000002 # Ta46
  0.6459000000000003    0.2499999999999999    0.7500000000000002 # Ta47
  0.6459000000000003    0.7500000000000002    0.2499999999999999 # Ta48
  0.2150000000000000    0.0000000000000000    0.0000000000000000 # C1
  0.2150000000000000    0.5000000000000002    0.4999999999999999 # C2
  0.7150000000000001    0.0000000000000000    0.4999999999999999 # C3
  0.7150000000000001    0.4999999999999999    0.0000000000000000 # C4
  0.2499999999999999    0.4650000000000000    0.2499999999999999 # C5
  0.2499999999999999    0.9650000000000000    0.7500000000000002 # C6
  0.7500000000000002    0.4650000000000000    0.7500000000000002 # C7
  0.7500000000000002    0.9650000000000000    0.2499999999999999 # C8
 -0.2150000000000000    0.0000000000000000    0.0000000000000000 # C9
 -0.2149999999999998    0.5000000000000002    0.4999999999999999 # C10
  0.2850000000000002    0.0000000000000000    0.4999999999999999 # C11
  0.2850000000000002    0.4999999999999999    0.0000000000000000 # C12
  0.2499999999999999    0.0349999999999999    0.2499999999999999 # C13
  0.2499999999999999    0.5350000000000001    0.7500000000000002 # C14
  0.7500000000000002    0.0350000000000002    0.7500000000000002 # C15
  0.7500000000000002    0.5350000000000001    0.2499999999999999 # C16
  0.4650000000000000    0.2499999999999999    0.2499999999999999 # C17
  0.4650000000000000    0.7500000000000002    0.7500000000000002 # C18
  0.9650000000000000    0.2499999999999999    0.7500000000000002 # C19
  0.9650000000000000    0.7500000000000002    0.2499999999999999 # C20
  0.2499999999999999    0.2499999999999999    0.0349999999999999 # C21
  0.2499999999999999    0.7500000000000002    0.5350000000000001 # C22
  0.7500000000000002    0.2499999999999999    0.5350000000000001 # C23
  0.7500000000000002    0.7500000000000002    0.0349999999999999 # C24
  0.2499999999999999    0.2499999999999999    0.4650000000000000 # C25
  0.2499999999999999    0.7500000000000002    0.9650000000000000 # C26
  0.7500000000000002    0.2499999999999999    0.9650000000000000 # C27
  0.7500000000000002    0.7500000000000002    0.4650000000000000 # C28
  0.0000000000000000    0.2150000000000000    0.0000000000000000 # C29
  0.0000000000000000    0.7150000000000001    0.4999999999999999 # C30
  0.4999999999999999    0.2150000000000000    0.4999999999999999 # C31
  0.4999999999999999    0.7150000000000001    0.0000000000000000 # C32
  0.0000000000000000    0.0000000000000000    0.2150000000000000 # C33
  0.0000000000000000    0.5000000000000002    0.7150000000000001 # C34
  0.4999999999999999    0.0000000000000000    0.7150000000000001 # C35
  0.4999999999999999    0.4999999999999999    0.2150000000000000 # C36
  0.0000000000000000   -0.2150000000000000    0.0000000000000000 # C37
  0.0000000000000000    0.2850000000000002    0.4999999999999999 # C38
  0.4999999999999999   -0.2150000000000000    0.4999999999999999 # C39
  0.4999999999999999    0.2849999999999999    0.0000000000000000 # C40
  0.0000000000000000    0.0000000000000000   -0.2150000000000000 # C41
  0.0000000000000000    0.4999999999999999    0.2849999999999999 # C42
  0.4999999999999999    0.0000000000000000    0.2849999999999999 # C43
  0.4999999999999999    0.4999999999999999   -0.2150000000000000 # C44
  0.0349999999999999    0.2499999999999999    0.2499999999999999 # C45
  0.0350000000000002    0.7500000000000002    0.7500000000000002 # C46
  0.5350000000000001    0.2499999999999999    0.7500000000000002 # C47
  0.5350000000000001    0.7500000000000002    0.2499999999999999 # C48
  0.2739999999999999    0.0000000000000000    0.0000000000000000 # N1
  0.2740000000000001    0.5000000000000002    0.4999999999999999 # N2
  0.7739999999999998    0.0000000000000000    0.4999999999999999 # N3
  0.7739999999999998    0.4999999999999999    0.0000000000000000 # N4
  0.2499999999999999    0.5240000000000001    0.2499999999999999 # N5
  0.2499999999999999    1.0240000000000000    0.7500000000000002 # N6
  0.7500000000000002    0.5240000000000001    0.7500000000000002 # N7
  0.7500000000000002    1.0240000000000000    0.2499999999999999 # N8
 -0.2739999999999999    0.0000000000000000    0.0000000000000000 # N9
 -0.2739999999999999    0.5000000000000002    0.4999999999999999 # N10
  0.2260000000000000    0.0000000000000000    0.4999999999999999 # N11
  0.2260000000000000    0.4999999999999999    0.0000000000000000 # N12
  0.2499999999999999   -0.0239999999999999    0.2499999999999999 # N13
  0.2499999999999999    0.4760000000000000    0.7500000000000002 # N14
  0.7500000000000002   -0.0239999999999999    0.7500000000000002 # N15
  0.7500000000000002    0.4760000000000000    0.2499999999999999 # N16
  0.5240000000000001    0.2499999999999999    0.2499999999999999 # N17
  0.5240000000000001    0.7500000000000002    0.7500000000000002 # N18
  1.0240000000000000    0.2499999999999999    0.7500000000000002 # N19
  1.0240000000000000    0.7500000000000002    0.2499999999999999 # N20
  0.2499999999999999    0.2499999999999999   -0.0239999999999999 # N21
  0.2499999999999999    0.7500000000000002    0.4760000000000000 # N22
  0.7500000000000002    0.2499999999999999    0.4760000000000000 # N23
  0.7500000000000002    0.7500000000000002   -0.0239999999999999 # N24
  0.2499999999999999    0.2499999999999999    0.5240000000000001 # N25
  0.2499999999999999    0.7500000000000002    1.0240000000000000 # N26
  0.7500000000000002    0.2500000000000003    1.0240000000000000 # N27
  0.7500000000000002    0.7500000000000002    0.5240000000000001 # N28
  0.0000000000000000    0.2739999999999999    0.0000000000000000 # N29
  0.0000000000000000    0.7740000000000001    0.4999999999999999 # N30
  0.4999999999999999    0.2740000000000001    0.4999999999999999 # N31
  0.5000000000000002    0.7739999999999998    0.0000000000000000 # N32
  0.0000000000000000    0.0000000000000000    0.2739999999999999 # N33
  0.0000000000000000    0.5000000000000002    0.7739999999999998 # N34
  0.5000000000000002    0.0000000000000000    0.7739999999999998 # N35
  0.4999999999999999    0.4999999999999999    0.2739999999999999 # N36
  0.0000000000000000   -0.2739999999999999    0.0000000000000000 # N37
  0.0000000000000000    0.2260000000000000    0.4999999999999999 # N38
  0.4999999999999999   -0.2739999999999999    0.4999999999999999 # N39
  0.4999999999999999    0.2260000000000000    0.0000000000000000 # N40
  0.0000000000000000    0.0000000000000000   -0.2739999999999999 # N41
  0.0000000000000000    0.4999999999999999    0.2260000000000000 # N42
  0.4999999999999999    0.0000000000000000    0.2260000000000000 # N43
  0.4999999999999999    0.4999999999999999   -0.2739999999999999 # N44
 -0.0239999999999999    0.2499999999999999    0.2499999999999999 # N45
 -0.0239999999999999    0.7500000000000002    0.7500000000000002 # N46
  0.4760000000000000    0.2499999999999999    0.7500000000000002 # N47
  0.4760000000000000    0.7500000000000002    0.2499999999999999 # N48
  0.1218999999999998    0.1212999999999999   -0.0010000000000001 # Cl1
  0.1219000000000001    0.6213000000000002    0.4990000000000002 # Cl2
  0.6219000000000000    0.1212999999999999    0.4990000000000002 # Cl3
  0.6219000000000000    0.6212999999999999   -0.0010000000000001 # Cl4
  0.1287000000000000    0.3719000000000001    0.2489999999999998 # Cl5
  0.1287000000000000    0.8719000000000001    0.7490000000000001 # Cl6
  0.6287000000000003    0.3719000000000001    0.7490000000000001 # Cl7
  0.6287000000000003    0.8719000000000001    0.2489999999999998 # Cl8
 -0.1219000000000001   -0.1212999999999999   -0.0010000000000001 # Cl9
 -0.1218999999999998    0.3786999999999999    0.4990000000000002 # Cl10
  0.3781000000000001   -0.1212999999999999    0.4990000000000002 # Cl11
  0.3781000000000001    0.3786999999999999   -0.0010000000000001 # Cl12
  0.3713000000000000    0.1281000000000001    0.2489999999999998 # Cl13
  0.3713000000000002    0.6281000000000000    0.7490000000000001 # Cl14
  0.8712999999999997    0.1281000000000001    0.7490000000000001 # Cl15
  0.8712999999999997    0.6281000000000000    0.2489999999999998 # Cl16
  0.3719000000000001    0.2510000000000001    0.3713000000000000 # Cl17
  0.3719000000000001    0.7510000000000000    0.8712999999999997 # Cl18
  0.8719000000000001    0.2510000000000001    0.8712999999999997 # Cl19
  0.8719000000000001    0.7510000000000000    0.3713000000000000 # Cl20
  0.1218999999999998   -0.1212999999999999    0.0010000000000001 # Cl21
  0.1219000000000001    0.3786999999999999    0.5010000000000000 # Cl22
  0.6219000000000000   -0.1212999999999999    0.5010000000000000 # Cl23
  0.6219000000000000    0.3786999999999999    0.0010000000000001 # Cl24
  0.3719000000000001    0.2489999999999998    0.1287000000000000 # Cl25
  0.3719000000000001    0.7490000000000001    0.6286999999999999 # Cl26
  0.8719000000000001    0.2490000000000001    0.6286999999999999 # Cl27
  0.8719000000000001    0.7490000000000001    0.1287000000000000 # Cl28
  0.2490000000000001    0.3713000000000000    0.1281000000000001 # Cl29
  0.2490000000000001    0.8712999999999997    0.6281000000000000 # Cl30
  0.7490000000000001    0.3713000000000002    0.6281000000000000 # Cl31
  0.7490000000000001    0.8712999999999997    0.1281000000000001 # Cl32
 -0.1219000000000001    0.1212999999999999    0.0010000000000001 # Cl33
 -0.1218999999999998    0.6213000000000002    0.5010000000000000 # Cl34
  0.3781000000000001    0.1212999999999999    0.5010000000000000 # Cl35
  0.3781000000000001    0.6212999999999999    0.0010000000000001 # Cl36
  0.2510000000000001    0.3713000000000000    0.3719000000000001 # Cl37
  0.2510000000000001    0.8713000000000002    0.8719000000000001 # Cl38
  0.7510000000000000    0.3713000000000002    0.8719000000000001 # Cl39
  0.7510000000000000    0.8712999999999997    0.3719000000000001 # Cl40
 -0.0010000000000001    0.1219000000000001    0.1212999999999999 # Cl41
 -0.0009999999999998    0.6219000000000000    0.6212999999999999 # Cl42
  0.4990000000000002    0.1219000000000001    0.6212999999999999 # Cl43
  0.4990000000000002    0.6219000000000000    0.1212999999999999 # Cl44
  0.1212999999999999   -0.0010000000000001    0.1219000000000001 # Cl45
  0.1212999999999999    0.4990000000000002    0.6219000000000000 # Cl46
  0.6212999999999999   -0.0009999999999998    0.6219000000000000 # Cl47
  0.6212999999999999    0.4990000000000002    0.1219000000000001 # Cl48
 -0.1212999999999999    0.0010000000000001    0.1219000000000001 # Cl49
 -0.1212999999999999    0.5010000000000000    0.6219000000000000 # Cl50
  0.3786999999999999    0.0010000000000001    0.6219000000000000 # Cl51
  0.3786999999999999    0.5010000000000000    0.1219000000000001 # Cl52
 -0.0010000000000001   -0.1219000000000001   -0.1212999999999999 # Cl53
 -0.0009999999999998    0.3781000000000001    0.3786999999999999 # Cl54
  0.4990000000000002   -0.1218999999999998    0.3786999999999999 # Cl55
  0.4990000000000002    0.3781000000000001   -0.1212999999999999 # Cl56
 -0.1212999999999999   -0.0010000000000001   -0.1219000000000001 # Cl57
 -0.1212999999999999    0.4990000000000002    0.3781000000000001 # Cl58
  0.3786999999999999   -0.0009999999999998    0.3781000000000001 # Cl59
  0.3786999999999999    0.4990000000000002   -0.1219000000000001 # Cl60
  0.0009999999999998   -0.1218999999999998    0.1212999999999999 # Cl61
  0.0010000000000001    0.3781000000000001    0.6212999999999999 # Cl62
  0.5010000000000000   -0.1218999999999998    0.6212999999999999 # Cl63
  0.5010000000000000    0.3781000000000001    0.1212999999999999 # Cl64
  0.0009999999999998    0.1218999999999998   -0.1212999999999999 # Cl65
  0.0010000000000001    0.6219000000000000    0.3786999999999999 # Cl66
  0.5010000000000000    0.1219000000000001    0.3786999999999999 # Cl67
  0.5010000000000000    0.6219000000000000   -0.1212999999999999 # Cl68
  0.1212999999999999    0.0010000000000001   -0.1219000000000001 # Cl69
  0.1212999999999999    0.5010000000000000    0.3781000000000001 # Cl70
  0.6212999999999999    0.0010000000000001    0.3781000000000001 # Cl71
  0.6212999999999999    0.5010000000000000   -0.1219000000000001 # Cl72
  0.3713000000000000    0.3719000000000001    0.2510000000000001 # Cl73
  0.3713000000000002    0.8719000000000001    0.7510000000000000 # Cl74
  0.8712999999999997    0.3719000000000001    0.7510000000000000 # Cl75
  0.8712999999999997    0.8719000000000001    0.2510000000000001 # Cl76
  0.1287000000000000    0.1281000000000001    0.2510000000000001 # Cl77
  0.1287000000000000    0.6281000000000000    0.7510000000000000 # Cl78
  0.6287000000000003    0.1281000000000001    0.7510000000000000 # Cl79
  0.6286999999999999    0.6281000000000000    0.2510000000000001 # Cl80
  0.1281000000000001    0.2490000000000001    0.3713000000000000 # Cl81
  0.1281000000000001    0.7490000000000001    0.8712999999999997 # Cl82
  0.6281000000000000    0.2490000000000001    0.8712999999999997 # Cl83
  0.6281000000000000    0.7490000000000001    0.3713000000000000 # Cl84
  0.1281000000000001    0.2510000000000001    0.1287000000000000 # Cl85
  0.1281000000000001    0.7510000000000000    0.6286999999999999 # Cl86
  0.6281000000000000    0.2510000000000001    0.6286999999999999 # Cl87
  0.6281000000000000    0.7510000000000000    0.1287000000000000 # Cl88
  0.2490000000000001    0.1287000000000000    0.3719000000000001 # Cl89
  0.2490000000000001    0.6287000000000003    0.8719000000000001 # Cl90
  0.7490000000000001    0.1287000000000000    0.8719000000000001 # Cl91
  0.7490000000000001    0.6286999999999999    0.3719000000000001 # Cl92
  0.2510000000000001    0.1287000000000000    0.1281000000000001 # Cl93
  0.2510000000000001    0.6287000000000003    0.6281000000000000 # Cl94
  0.7510000000000000    0.1287000000000000    0.6281000000000000 # Cl95
  0.7510000000000000    0.6286999999999999    0.1281000000000001 # Cl96
  0.4050000000000001    0.1360000000000001    0.0170000000000000 # O1
  0.4050000000000001    0.6360000000000000    0.5170000000000000 # O2
  0.9049999999999999    0.1360000000000001    0.5170000000000000 # O3
  0.9049999999999999    0.6360000000000000    0.0170000000000000 # O4
  0.1140000000000001    0.6550000000000001    0.2670000000000000 # O5
  0.1140000000000001    0.1550000000000001    0.7669999999999999 # O6
  0.6140000000000001    0.6550000000000001    0.7669999999999999 # O7
  0.6140000000000001    0.1550000000000001    0.2670000000000000 # O8
  0.5950000000000001    0.8640000000000000    0.0170000000000000 # O9
  0.5949999999999998    0.3640000000000001    0.5170000000000000 # O10
  0.0950000000000001    0.8640000000000000    0.5170000000000000 # O11
  0.0949999999999999    0.3640000000000001    0.0170000000000000 # O12
  0.3860000000000001    0.8450000000000001    0.2670000000000000 # O13
  0.3860000000000001    0.3450000000000001    0.7669999999999999 # O14
  0.8860000000000001    0.8450000000000001    0.7669999999999999 # O15
  0.8860000000000001    0.3450000000000001    0.2670000000000000 # O16
  0.6550000000000001    0.2329999999999999    0.3860000000000001 # O17
  0.6550000000000004    0.7330000000000002    0.8860000000000001 # O18
  0.1550000000000001    0.2330000000000002    0.8860000000000001 # O19
  0.1550000000000001    0.7329999999999999    0.3860000000000001 # O20
  0.4050000000000002    0.8640000000000003    0.9830000000000000 # O21
  0.4050000000000001    0.3640000000000001    0.4829999999999998 # O22
  0.9049999999999999    0.8640000000000000    0.4829999999999998 # O23
  0.9049999999999999    0.3640000000000001    0.9830000000000000 # O24
  0.6550000000000001    0.2670000000000000    0.1139999999999998 # O25
  0.6550000000000001    0.7670000000000002    0.6140000000000001 # O26
  0.1550000000000001    0.2670000000000000    0.6140000000000001 # O27
  0.1550000000000001    0.7669999999999999    0.1139999999999998 # O28
  0.2670000000000000    0.3860000000000001    0.8450000000000001 # O29
  0.2670000000000000    0.8860000000000001    0.3449999999999998 # O30
  0.7669999999999999    0.3860000000000001    0.3449999999999998 # O31
  0.7670000000000002    0.8860000000000003    0.8450000000000001 # O32
  0.5950000000000001    0.1360000000000001    0.9830000000000000 # O33
  0.5949999999999998    0.6360000000000000    0.4829999999999998 # O34
  0.0950000000000001    0.1360000000000001    0.4829999999999998 # O35
  0.0950000000000001    0.6360000000000000    0.9830000000000000 # O36
  0.2330000000000002    0.3860000000000001    0.6550000000000001 # O37
  0.2329999999999999    0.8860000000000001    0.1550000000000001 # O38
  0.7329999999999999    0.3860000000000001    0.1550000000000001 # O39
  0.7330000000000002    0.8860000000000001    0.6550000000000001 # O40
  0.0170000000000000    0.4050000000000001    0.1360000000000001 # O41
  0.0170000000000000    0.9049999999999999    0.6360000000000000 # O42
  0.5170000000000000    0.4050000000000001    0.6360000000000000 # O43
  0.5170000000000000    0.9049999999999999    0.1360000000000001 # O44
  0.1360000000000001    0.0170000000000000    0.4050000000000001 # O45
  0.1360000000000001    0.5170000000000000    0.9049999999999999 # O46
  0.6360000000000000    0.0170000000000000    0.9049999999999999 # O47
  0.6360000000000000    0.5170000000000000    0.4050000000000001 # O48
  0.8640000000000000    0.9830000000000000    0.4050000000000001 # O49
  0.8640000000000000    0.4830000000000001    0.9049999999999999 # O50
  0.3640000000000001    0.9830000000000000    0.9049999999999999 # O51
  0.3640000000000001    0.4830000000000001    0.4050000000000001 # O52
  0.0170000000000000    0.5950000000000001    0.8640000000000000 # O53
  0.0170000000000000    0.0950000000000001    0.3640000000000001 # O54
  0.5170000000000000    0.5949999999999998    0.3640000000000001 # O55
  0.5170000000000000    0.0950000000000001    0.8640000000000000 # O56
  0.8640000000000000    0.0170000000000000    0.5949999999999998 # O57
  0.8640000000000000    0.5170000000000000    0.0949999999999999 # O58
  0.3640000000000001    0.0170000000000000    0.0949999999999999 # O59
  0.3640000000000001    0.5170000000000000    0.5949999999999998 # O60
  0.9830000000000000    0.5949999999999998    0.1360000000000001 # O61
  0.9830000000000000    0.0950000000000001    0.6360000000000000 # O62
  0.4829999999999998    0.5950000000000001    0.6360000000000000 # O63
  0.4829999999999998    0.0949999999999999    0.1360000000000001 # O64
  0.9830000000000000    0.4050000000000001    0.8640000000000000 # O65
  0.9830000000000000    0.9049999999999999    0.3640000000000001 # O66
  0.4829999999999998    0.4050000000000001    0.3640000000000001 # O67
  0.4830000000000001    0.9050000000000002    0.8640000000000000 # O68
  0.1360000000000001    0.9830000000000000    0.5949999999999998 # O69
  0.1360000000000001    0.4829999999999998    0.0949999999999999 # O70
  0.6360000000000000    0.9830000000000000    0.0949999999999999 # O71
  0.6360000000000000    0.4830000000000001    0.5949999999999998 # O72
  0.3860000000000001    0.6550000000000001    0.2329999999999999 # O73
  0.3860000000000001    0.1550000000000001    0.7329999999999999 # O74
  0.8860000000000001    0.6550000000000001    0.7329999999999999 # O75
  0.8860000000000001    0.1550000000000001    0.2329999999999999 # O76
  0.1140000000000001    0.8450000000000001    0.2329999999999999 # O77
  0.1140000000000001    0.3450000000000001    0.7329999999999999 # O78
  0.6140000000000003    0.8450000000000001    0.7329999999999999 # O79
  0.6140000000000001    0.3450000000000001    0.2329999999999999 # O80
  0.8450000000000001    0.2670000000000000    0.3860000000000001 # O81
  0.8450000000000001    0.7670000000000002    0.8860000000000001 # O82
  0.3450000000000001    0.2670000000000000    0.8860000000000001 # O83
  0.3450000000000001    0.7669999999999999    0.3860000000000001 # O84
  0.8450000000000001    0.2329999999999999    0.1139999999999998 # O85
  0.8450000000000001    0.7330000000000002    0.6140000000000001 # O86
  0.3450000000000001    0.2330000000000002    0.6140000000000001 # O87
  0.3450000000000001    0.7329999999999999    0.1139999999999998 # O88
  0.2670000000000000    0.1140000000000001    0.6550000000000001 # O89
  0.2670000000000000    0.6140000000000001    0.1550000000000001 # O90
  0.7669999999999999    0.1140000000000001    0.1550000000000001 # O91
  0.7669999999999999    0.6140000000000001    0.6550000000000001 # O92
  0.2329999999999999    0.1140000000000001    0.8450000000000001 # O93
  0.2329999999999999    0.6140000000000001    0.3449999999999998 # O94
  0.7329999999999999    0.1140000000000001    0.3449999999999998 # O95
  0.7330000000000002    0.6140000000000001    0.8450000000000001 # O96
