$cell vectors
1.0
  9.5429955096198782    0.0000000000000000    0.0000000000000000
  0.0000000000000000    9.5429955096198782    0.0000000000000000
  0.0000000000000000    0.0000000000000000    9.5429955096198782
 10 22 32
Direct
  0.2500000000000002    0.2500000000000002    0.2500000000000002 # U1
  0.2500000000000002    0.4999999999999998    0.0000000000000000 # U2
  0.2500000000000002    0.7500000000000001    0.7500000000000001 # U3
  0.0000000000000000    0.7500000000000001    0.4999999999999998 # U4
  0.7500000000000001    0.7500000000000001    0.2500000000000002 # U5
  0.7500000000000001    0.4999999999999998    0.0000000000000000 # U6
  0.7500000000000001    0.2500000000000002    0.7500000000000001 # U7
  0.0000000000000000    0.2500000000000002    0.4999999999999998 # U8
  0.4999999999999998    0.0000000000000000    0.2500000000000002 # U9
  0.4999999999999998    0.0000000000000000    0.7500000000000001 # U10
  0.7500000000000001    0.7500000000000001    0.7500000000000001 # Na1
  0.2500000000000002    0.0000000000000000    0.4999999999999998 # Na2
  0.2500000000000002    0.0000000000000000    0.0000000000000000 # Na3
  0.7500000000000001    0.2500000000000002    0.2500000000000002 # Na4
  0.4999999999999998    0.7500000000000001    0.0000000000000000 # Na5
  0.4999999999999998    0.7500000000000001    0.4999999999999998 # Na6
  0.2500000000000002    0.2500000000000002    0.7500000000000001 # Na7
  0.7500000000000001    0.0000000000000000    0.4999999999999998 # Na8
  0.7500000000000001    0.0000000000000000    0.0000000000000000 # Na9
  0.2500000000000002    0.7500000000000001    0.2500000000000002 # Na10
  0.4999999999999998    0.2500000000000002    0.0000000000000000 # Na11
  0.4999999999999998    0.2500000000000002    0.4999999999999998 # Na12
  0.7500000000000001    0.4999999999999998    0.4999999999999998 # Na13
  0.0000000000000000    0.4999999999999998    0.2500000000000002 # Na14
  0.4999999999999998    0.4999999999999998    0.2500000000000002 # Na15
  0.0000000000000000    0.4999999999999998    0.7500000000000001 # Na16
  0.4999999999999998    0.4999999999999998    0.7500000000000001 # Na17
  0.0000000000000000    0.2500000000000002    0.0000000000000000 # Na18
  0.0000000000000000    0.0000000000000000    0.2500000000000002 # Na19
  0.0000000000000000    0.7500000000000001    0.0000000000000000 # Na20
  0.0000000000000000    0.0000000000000000    0.7500000000000001 # Na21
  0.2500000000000002    0.4999999999999998    0.4999999999999998 # Na22
  0.0000000000000000    0.0000000000000000    0.0000000000000000 # O1
  0.0000000000000000    0.4999999999999998    0.4999999999999998 # O2
  0.7500000000000001    0.2500000000000002    0.0000000000000000 # O3
  0.4999999999999998    0.4999999999999998    0.4999999999999998 # O4
  0.0000000000000000    0.4999999999999998    0.0000000000000000 # O5
  0.2500000000000002    0.2500000000000002    0.4999999999999998 # O6
  0.2500000000000002    0.7500000000000001    0.0000000000000000 # O7
  0.7500000000000001    0.7500000000000001    0.4999999999999998 # O8
  0.4999999999999998    0.0000000000000000    0.0000000000000000 # O9
  0.2500000000000002    0.4999999999999998    0.7500000000000001 # O10
  0.7500000000000001    0.7500000000000001    0.0000000000000000 # O11
  0.2500000000000002    0.4999999999999998    0.2500000000000002 # O12
  0.0000000000000000    0.0000000000000000    0.4999999999999998 # O13
  0.4999999999999998    0.7500000000000001    0.7500000000000001 # O14
  0.2500000000000002    0.2500000000000002    0.0000000000000000 # O15
  0.4999999999999998    0.7500000000000001    0.2500000000000002 # O16
  0.4999999999999998    0.0000000000000000    0.4999999999999998 # O17
  0.0000000000000000    0.7500000000000001    0.2500000000000002 # O18
  0.4999999999999998    0.4999999999999998    0.0000000000000000 # O19
  0.2500000000000002    0.0000000000000000    0.7500000000000001 # O20
  0.7500000000000001    0.0000000000000000    0.7500000000000001 # O21
  0.0000000000000000    0.2500000000000002    0.7500000000000001 # O22
  0.7500000000000001    0.0000000000000000    0.2500000000000002 # O23
  0.0000000000000000    0.2500000000000002    0.2500000000000002 # O24
  0.0000000000000000    0.7500000000000001    0.7500000000000001 # O25
  0.2500000000000002    0.0000000000000000    0.2500000000000002 # O26
  0.7500000000000001    0.2500000000000002    0.4999999999999998 # O27
  0.2500000000000002    0.7500000000000001    0.4999999999999998 # O28
  0.7500000000000001    0.4999999999999998    0.7500000000000001 # O29
  0.7500000000000001    0.4999999999999998    0.2500000000000002 # O30
  0.4999999999999998    0.2500000000000002    0.2500000000000002 # O31
  0.4999999999999998    0.2500000000000002    0.7500000000000001 # O32
