$cell vectors
1.0
  4.3999979296162053    0.0000000000000000    0.0000000000000000
  0.0000000000000000    4.3999979296162053    0.0000000000000000
  0.0000000000000000    0.0000000000000000    4.3999979296162053
 1 8 24
Direct
  0.0000000000000000    0.0000000000000000    0.0000000000000000 # Rb1
  0.4440000000000008    0.4440000000000008    0.4439999999999997 # N1
  0.5560000000000005    0.4440000000000008    0.4439999999999997 # N2
  0.5560000000000005    0.5560000000000005    0.4439999999999997 # N3
  0.4440000000000008    0.5560000000000005    0.4439999999999997 # N4
  0.4440000000000008    0.5560000000000005    0.5560000000000005 # N5
  0.4440000000000008    0.4440000000000008    0.5560000000000005 # N6
  0.5560000000000005    0.4440000000000008    0.5560000000000005 # N7
  0.5560000000000005    0.5560000000000005    0.5560000000000005 # N8
  0.5330000000000001    0.5750000000000006    0.2310000000000004 # O1
  0.4250000000000006    0.5330000000000001    0.2310000000000004 # O2
  0.4670000000000000    0.4250000000000006    0.2310000000000004 # O3
  0.5750000000000006    0.4670000000000000    0.2310000000000004 # O4
  0.5330000000000001    0.7690000000000010    0.5750000000000006 # O5
  0.5330000000000001    0.4250000000000006    0.7690000000000010 # O6
  0.5330000000000001    0.2310000000000004    0.4250000000000006 # O7
  0.2310000000000004    0.5750000000000006    0.4670000000000000 # O8
  0.4670000000000000    0.5750000000000006    0.7690000000000010 # O9
  0.7690000000000010    0.5750000000000006    0.5330000000000001 # O10
  0.2310000000000004    0.5330000000000001    0.5750000000000006 # O11
  0.5750000000000006    0.2310000000000004    0.5330000000000001 # O12
  0.4250000000000006    0.7690000000000010    0.5330000000000001 # O13
  0.2310000000000004    0.4670000000000000    0.4250000000000006 # O14
  0.4250000000000006    0.2310000000000004    0.4670000000000000 # O15
  0.7690000000000010    0.4670000000000000    0.5750000000000006 # O16
  0.7690000000000010    0.5330000000000001    0.4250000000000006 # O17
  0.5750000000000006    0.7690000000000010    0.4670000000000000 # O18
  0.5750000000000006    0.5330000000000001    0.7690000000000010 # O19
  0.4250000000000006    0.4670000000000000    0.7690000000000010 # O20
  0.4670000000000000    0.2310000000000004    0.5750000000000006 # O21
  0.4670000000000000    0.7690000000000010    0.4250000000000006 # O22
  0.2310000000000004    0.4250000000000006    0.5330000000000001 # O23
  0.7690000000000010    0.4250000000000006    0.4670000000000000 # O24
