$cell vectors
1.0
 12.3759941765750430    0.0000000000000000    0.0000000000000000
  0.0000000000000000   12.3759941765750430    0.0000000000000000
  0.0000000000000000    0.0000000000000000   12.3759941765750430
 24 40 96
Direct
  0.1249999999999998    0.0000000000000000    0.2500000000000000 # Y1
  0.6249999999999998    0.4999999999999999    0.7500000000000000 # Y2
  0.8749999999999999    0.0000000000000000    0.7500000000000000 # Y3
  0.3749999999999998    0.4999999999999999    0.2500000000000000 # Y4
  0.2500000000000000    0.8749999999999999    0.4999999999999999 # Y5
  0.7500000000000000    0.3749999999999998    0.0000000000000000 # Y6
  0.7500000000000000    0.1250000000000002    0.4999999999999999 # Y7
  0.2500000000000000    0.6249999999999998    0.0000000000000000 # Y8
  0.8749999999999999    0.4999999999999999    0.2500000000000000 # Y9
  0.3750000000000003    0.0000000000000000    0.7500000000000000 # Y10
  0.1250000000000002    0.4999999999999999    0.7500000000000000 # Y11
  0.6249999999999998    0.0000000000000000    0.2500000000000000 # Y12
  0.2500000000000000    0.1249999999999998    0.0000000000000000 # Y13
  0.7500000000000000    0.6249999999999998    0.4999999999999999 # Y14
  0.7500000000000000    0.8749999999999999    0.0000000000000000 # Y15
  0.2500000000000000    0.3750000000000003    0.4999999999999999 # Y16
  0.0000000000000000    0.2500000000000000    0.1249999999999998 # Y17
  0.4999999999999999    0.7500000000000000    0.6249999999999998 # Y18
  0.0000000000000000    0.7500000000000000    0.8749999999999999 # Y19
  0.4999999999999999    0.2500000000000000    0.3749999999999998 # Y20
  0.0000000000000000    0.7500000000000000    0.3749999999999998 # Y21
  0.4999999999999999    0.2500000000000000    0.8749999999999999 # Y22
  0.0000000000000000    0.2500000000000000    0.6249999999999998 # Y23
  0.4999999999999999    0.7500000000000000    0.1249999999999998 # Y24
  0.0000000000000000    0.0000000000000000    0.0000000000000000 # Fe1
  0.3749999999999998    0.0000000000000000    0.2500000000000000 # Fe2
  0.4999999999999999    0.4999999999999999    0.4999999999999999 # Fe3
  0.8749999999999999    0.4999999999999999    0.7500000000000000 # Fe4
  0.6249999999999998    0.0000000000000000    0.7500000000000000 # Fe5
  0.1250000000000002    0.4999999999999999    0.2500000000000000 # Fe6
  0.2500000000000000    0.7500000000000000    0.2500000000000000 # Fe7
  0.2500000000000000    0.1250000000000002    0.4999999999999999 # Fe8
  0.7500000000000000    0.2500000000000000    0.7500000000000000 # Fe9
  0.7500000000000000    0.6249999999999998    0.0000000000000000 # Fe10
  0.7500000000000000    0.8749999999999999    0.4999999999999999 # Fe11
  0.2500000000000000    0.3749999999999998    0.0000000000000000 # Fe12
  0.0000000000000000    0.4999999999999999    0.0000000000000000 # Fe13
  0.6249999999999998    0.4999999999999999    0.2500000000000000 # Fe14
  0.4999999999999999    0.0000000000000000    0.4999999999999999 # Fe15
  0.1250000000000002    0.0000000000000000    0.7500000000000000 # Fe16
  0.3750000000000003    0.4999999999999999    0.7500000000000000 # Fe17
  0.8749999999999999    0.0000000000000000    0.2500000000000000 # Fe18
  0.2500000000000000    0.2500000000000000    0.7500000000000000 # Fe19
  0.2500000000000000    0.8749999999999999    0.0000000000000000 # Fe20
  0.7500000000000000    0.7500000000000000    0.2500000000000000 # Fe21
  0.7500000000000000    0.3750000000000003    0.4999999999999999 # Fe22
  0.7500000000000000    0.1249999999999998    0.0000000000000000 # Fe23
  0.2500000000000000    0.6249999999999998    0.4999999999999999 # Fe24
  0.0000000000000000    0.0000000000000000    0.4999999999999999 # Fe25
  0.4999999999999999    0.4999999999999999    0.0000000000000000 # Fe26
  0.7500000000000000    0.2500000000000000    0.2500000000000000 # Fe27
  0.2500000000000000    0.7500000000000000    0.7500000000000000 # Fe28
  0.0000000000000000    0.2500000000000000    0.8749999999999999 # Fe29
  0.4999999999999999    0.7500000000000000    0.3749999999999998 # Fe30
  0.0000000000000000    0.7500000000000000    0.1249999999999998 # Fe31
  0.4999999999999999    0.2500000000000000    0.6249999999999998 # Fe32
  0.4999999999999999    0.0000000000000000    0.0000000000000000 # Fe33
  0.0000000000000000    0.4999999999999999    0.4999999999999999 # Fe34
  0.0000000000000000    0.7500000000000000    0.6249999999999998 # Fe35
  0.4999999999999999    0.2500000000000000    0.1249999999999998 # Fe36
  0.0000000000000000    0.2500000000000000    0.3749999999999998 # Fe37
  0.4999999999999999    0.7500000000000000    0.8749999999999999 # Fe38
  0.2500000000000000    0.2500000000000000    0.2500000000000000 # Fe39
  0.7500000000000000    0.7500000000000000    0.7500000000000000 # Fe40
  0.9729999999999999    0.0566999999999999    0.1503999999999998 # O1
  0.4729999999999998    0.5567000000000000    0.6503999999999999 # O2
  0.0270000000000002    0.9433000000000000    0.8495999999999999 # O3
  0.5269999999999998    0.4433000000000001    0.3495999999999999 # O4
  0.1933000000000001    0.7229999999999998    0.4003999999999998 # O5
  0.6933000000000000    0.2230000000000002    0.9003999999999998 # O6
  0.8066999999999998    0.2770000000000002    0.5995999999999998 # O7
  0.3066999999999999    0.7769999999999998    0.0995999999999998 # O8
  0.0270000000000002    0.4433000000000001    0.1503999999999998 # O9
  0.5270000000000002    0.9433000000000000    0.6503999999999999 # O10
  0.9729999999999999    0.5567000000000000    0.8495999999999999 # O11
  0.4729999999999998    0.0566999999999999    0.3495999999999999 # O12
  0.3066999999999999    0.2770000000000002    0.9003999999999998 # O13
  0.8066999999999998    0.7769999999999998    0.4003999999999998 # O14
  0.6933000000000000    0.7229999999999998    0.0995999999999998 # O15
  0.1933000000000001    0.2230000000000002    0.5995999999999998 # O16
  0.2230000000000002    0.0996000000000002    0.8066999999999998 # O17
  0.7229999999999998    0.5995999999999998    0.3066999999999999 # O18
  0.7769999999999998    0.9003999999999998    0.1933000000000001 # O19
  0.2770000000000002    0.4003999999999998    0.6933000000000000 # O20
  0.9729999999999999    0.9433000000000000    0.3495999999999999 # O21
  0.4729999999999998    0.4433000000000001    0.8495999999999999 # O22
  0.0270000000000002    0.0566999999999999    0.6503999999999999 # O23
  0.5269999999999998    0.5567000000000000    0.1503999999999998 # O24
  0.7229999999999998    0.4003999999999998    0.1933000000000001 # O25
  0.2230000000000002    0.9003999999999998    0.6933000000000000 # O26
  0.2770000000000002    0.5995999999999998    0.8066999999999998 # O27
  0.7769999999999998    0.0995999999999998    0.3066999999999999 # O28
  0.9003999999999998    0.3066999999999999    0.2769999999999998 # O29
  0.4004000000000003    0.8066999999999998    0.7769999999999998 # O30
  0.0996000000000002    0.6933000000000000    0.7229999999999998 # O31
  0.5996000000000002    0.1933000000000001    0.2229999999999998 # O32
  0.5269999999999998    0.0566999999999999    0.8495999999999999 # O33
  0.0270000000000002    0.5567000000000000    0.3495999999999999 # O34
  0.4729999999999998    0.9433000000000000    0.1503999999999998 # O35
  0.9729999999999999    0.4433000000000001    0.6503999999999999 # O36
  0.0996000000000002    0.8066999999999998    0.2229999999999998 # O37
  0.5995999999999998    0.3066999999999999    0.7229999999999998 # O38
  0.9003999999999998    0.1933000000000001    0.7769999999999998 # O39
  0.4003999999999998    0.6933000000000000    0.2769999999999998 # O40
  0.1504000000000002    0.9729999999999999    0.0566999999999999 # O41
  0.6503999999999999    0.4729999999999998    0.5567000000000000 # O42
  0.8495999999999999    0.0270000000000002    0.9433000000000000 # O43
  0.3495999999999999    0.5269999999999998    0.4433000000000001 # O44
  0.0566999999999999    0.1504000000000002    0.9729999999999999 # O45
  0.5567000000000000    0.6503999999999999    0.4729999999999998 # O46
  0.9433000000000000    0.8495999999999999    0.0269999999999998 # O47
  0.4433000000000001    0.3495999999999999    0.5269999999999998 # O48
  0.9433000000000000    0.3496000000000002    0.9729999999999999 # O49
  0.4433000000000001    0.8495999999999999    0.4729999999999998 # O50
  0.0566999999999999    0.6503999999999999    0.0269999999999998 # O51
  0.5567000000000000    0.1504000000000002    0.5269999999999998 # O52
  0.1504000000000002    0.0270000000000002    0.4433000000000001 # O53
  0.6503999999999999    0.5269999999999998    0.9433000000000000 # O54
  0.8495999999999999    0.9729999999999999    0.5567000000000000 # O55
  0.3495999999999999    0.4729999999999998    0.0566999999999999 # O56
  0.4433000000000001    0.1503999999999998    0.0269999999999998 # O57
  0.9433000000000000    0.6503999999999999    0.5269999999999998 # O58
  0.5567000000000000    0.8496000000000004    0.9729999999999999 # O59
  0.0566999999999999    0.3495999999999999    0.4729999999999998 # O60
  0.8495999999999999    0.5269999999999998    0.0566999999999999 # O61
  0.3495999999999999    0.0270000000000002    0.5567000000000000 # O62
  0.1504000000000002    0.4729999999999998    0.9433000000000000 # O63
  0.6503999999999999    0.9729999999999999    0.4433000000000001 # O64
  0.3496000000000002    0.9729999999999999    0.9433000000000000 # O65
  0.8495999999999999    0.4729999999999998    0.4433000000000001 # O66
  0.6503999999999999    0.0269999999999998    0.0566999999999999 # O67
  0.1504000000000002    0.5269999999999998    0.5567000000000000 # O68
  0.0566999999999999    0.8495999999999999    0.5269999999999998 # O69
  0.5567000000000000    0.3495999999999999    0.0269999999999998 # O70
  0.9433000000000000    0.1504000000000002    0.4729999999999998 # O71
  0.4433000000000001    0.6503999999999999    0.9729999999999999 # O72
  0.8066999999999998    0.2229999999999998    0.0995999999999998 # O73
  0.3066999999999999    0.7229999999999998    0.5995999999999998 # O74
  0.1933000000000001    0.7769999999999998    0.9003999999999998 # O75
  0.6933000000000000    0.2769999999999998    0.4003999999999998 # O76
  0.1933000000000001    0.2769999999999998    0.0995999999999998 # O77
  0.6933000000000000    0.7769999999999998    0.5995999999999998 # O78
  0.8066999999999998    0.7229999999999998    0.9003999999999998 # O79
  0.3066999999999999    0.2230000000000002    0.4003999999999998 # O80
  0.2770000000000002    0.9003999999999998    0.3066999999999999 # O81
  0.7769999999999998    0.4003999999999998    0.8066999999999998 # O82
  0.7229999999999998    0.0996000000000002    0.6933000000000000 # O83
  0.2230000000000002    0.5995999999999998    0.1933000000000001 # O84
  0.2769999999999998    0.0995999999999998    0.1933000000000001 # O85
  0.7769999999999998    0.5995999999999998    0.6933000000000000 # O86
  0.7229999999999998    0.9003999999999998    0.8066999999999998 # O87
  0.2230000000000002    0.4003999999999998    0.3066999999999999 # O88
  0.4003999999999998    0.1933000000000001    0.7229999999999998 # O89
  0.9003999999999998    0.6933000000000000    0.2229999999999998 # O90
  0.5996000000000002    0.8066999999999998    0.2769999999999998 # O91
  0.0996000000000002    0.3066999999999999    0.7769999999999998 # O92
  0.0995999999999998    0.1933000000000001    0.2769999999999998 # O93
  0.5996000000000002    0.6933000000000000    0.7769999999999998 # O94
  0.9003999999999998    0.8066999999999998    0.7229999999999998 # O95
  0.4003999999999998    0.3066999999999999    0.2229999999999998 # O96
