#========================================================================
# FHI-aims geometry file: /home/tpurcell/git/pymatgen/tests/io/aims/testing/geometry.in
# File generated from pymatgen
# Mon Oct 30 20:29:48 2023
#========================================================================
#===============================================================================
xc                                 pw-lda
occupation_type                    fermi 0.010000
vdw_correction_hirshfeld
compute_forces                     .true.
relax_geometry                     trm 1e-3
batch_size_limit                   200
output cube eigenstate 1
    cube origin  0.000000000000e+00  0.000000000000e+00  0.000000000000e+00
    cube edge 10  1.000000000000e-01  0.000000000000e+00  0.000000000000e+00
    cube edge 10  0.000000000000e+00  1.000000000000e-01  0.000000000000e+00
    cube edge 10  0.000000000000e+00  0.000000000000e+00  1.000000000000e-01
    cube format cube
output cube total_density
    cube origin  0.000000000000e+00  0.000000000000e+00  0.000000000000e+00
    cube edge 10  1.000000000000e-01  0.000000000000e+00  0.000000000000e+00
    cube edge 10  0.000000000000e+00  1.000000000000e-01  0.000000000000e+00
    cube edge 10  0.000000000000e+00  0.000000000000e+00  1.000000000000e-01
    cube format cube
#===============================================================================

################################################################################
#
#  FHI-aims code project
#  VB, Fritz-Haber Institut, 2009
#
#  Suggested "light" defaults for H atom (to be pasted into control.in file)
#  Be sure to double-check any results obtained with these settings for post-processing,
#  e.g., with the "tight" defaults and larger basis sets.
#
################################################################################
  species        H
#     global species definitions
    nucleus             1
    mass                1.00794
#
    l_hartree           4
#
    cut_pot             3.5  1.5  1.0
    basis_dep_cutoff    1e-4
#
    radial_base         24 5.0
    radial_multiplier   1
    angular_grids       specified
      division   0.2421   50
      division   0.3822  110
      division   0.4799  194
      division   0.5341  302
#      division   0.5626  434
#      division   0.5922  590
#      division   0.6542  770
#      division   0.6868 1202
#      outer_grid  770
      outer_grid  302
################################################################################
#
#  Definition of "minimal" basis
#
################################################################################
#     valence basis states
    valence      1  s   1.
#     ion occupancy
    ion_occ      1  s   0.5
################################################################################
#
#  Suggested additional basis functions. For production calculations,
#  uncomment them one after another (the most important basis functions are
#  listed first).
#
#  Basis constructed for dimers: 0.5 A, 0.7 A, 1.0 A, 1.5 A, 2.5 A
#
################################################################################
#  "First tier" - improvements: -1014.90 meV to -62.69 meV
     hydro 2 s 2.1
     hydro 2 p 3.5
#  "Second tier" - improvements: -12.89 meV to -1.83 meV
#     hydro 1 s 0.85
#     hydro 2 p 3.7
#     hydro 2 s 1.2
#     hydro 3 d 7
#  "Third tier" - improvements: -0.25 meV to -0.12 meV
#     hydro 4 f 11.2
#     hydro 3 p 4.8
#     hydro 4 d 9
#     hydro 3 s 3.2
################################################################################
#
#  FHI-aims code project
#  VB, Fritz-Haber Institut, 2009
#
#  Suggested "light" defaults for O atom (to be pasted into control.in file)
#  Be sure to double-check any results obtained with these settings for post-processing,
#  e.g., with the "tight" defaults and larger basis sets.
#
################################################################################
  species        O
#     global species definitions
    nucleus             8
    mass                15.9994
#
    l_hartree           4
#
    cut_pot             3.5  1.5  1.0
    basis_dep_cutoff    1e-4
#
    radial_base         36 5.0
    radial_multiplier   1
     angular_grids specified
      division   0.2659   50
      division   0.4451  110
      division   0.6052  194
      division   0.7543  302
#      division   0.8014  434
#      division   0.8507  590
#      division   0.8762  770
#      division   0.9023  974
#      division   1.2339 1202
#      outer_grid 974
      outer_grid 302
################################################################################
#
#  Definition of "minimal" basis
#
################################################################################
#     valence basis states
    valence      2  s   2.
    valence      2  p   4.
#     ion occupancy
    ion_occ      2  s   1.
    ion_occ      2  p   3.
################################################################################
#
#  Suggested additional basis functions. For production calculations,
#  uncomment them one after another (the most important basis functions are
#  listed first).
#
#  Constructed for dimers: 1.0 A, 1.208 A, 1.5 A, 2.0 A, 3.0 A
#
################################################################################
#  "First tier" - improvements: -699.05 meV to -159.38 meV
     hydro 2 p 1.8
     hydro 3 d 7.6
     hydro 3 s 6.4
#  "Second tier" - improvements: -49.91 meV to -5.39 meV
#     hydro 4 f 11.6
#     hydro 3 p 6.2
#     hydro 3 d 5.6
#     hydro 5 g 17.6
#     hydro 1 s 0.75
#  "Third tier" - improvements: -2.83 meV to -0.50 meV
#     ionic 2 p auto
#     hydro 4 f 10.8
#     hydro 4 d 4.7
#     hydro 2 s 6.8
#  "Fourth tier" - improvements: -0.40 meV to -0.12 meV
#     hydro 3 p 5
#     hydro 3 s 3.3
#     hydro 5 g 15.6
#     hydro 4 f 17.6
#     hydro 4 d 14
# Further basis functions - -0.08 meV and below
#     hydro 3 s 2.1
#     hydro 4 d 11.6
#     hydro 3 p 16
#     hydro 2 s 17.2
