#=======================================================
# FHI-aims file: geometry.in.si
# Created using the Atomic Simulation Environment (ASE)
# Mon Oct 30 09:52:33 2023
#=======================================================
lattice_vector 0.0000000000000000 2.715 2.716
lattice_vector 2.717 0.0000000000000000 2.718
lattice_vector 2.719 2.720 0.0000000000000000
atom_frac 0.0000000000000000 0.0000000000000000 -0.0000000000000000 Si
atom_frac 0.2500000000000000 0.2400000000000000 0.2600000000000000 Si
