Example file
4
Cartesian
0.0  0.0  0.0   1.
0.0  0.0  0.5   1.
0.0  0.5  0.5   2.
0.5  0.5  0.5   4.
Tetrahedra
1  0.183333333333333
6    1 2 3 4