$cell vectors
1.0
 17.3899918172786023    0.0000000000000000    0.0000000000000000
 -8.6949959086392958   15.0601746853667855    0.0000000000000000
  0.0000000000000000    0.0000000000000000   13.0359938660174706
 24 48
Direct
  0.4370000000000001    0.5630000000000002    0.0000000000000000 # Si1
  0.6199999999999999    0.6200000000000002    0.0000000000000000 # Si2
  0.2760000000000000    0.4400000000000002    0.1179999999999999 # Si3
  0.1630000000000001    0.4400000000000002    0.2160000000000002 # Si4
  0.8740000000000000    0.4369999999999999    0.3333333333333333 # Si5
  0.0000000000000002    0.6200000000000002    0.3333333333333333 # Si6
  0.8360000000000003    0.2760000000000001    0.4513333333333333 # Si7
  0.7230000000000000    0.1629999999999999    0.5493333333333335 # Si8
  0.4370000000000001    0.8740000000000002    0.6666666666666665 # Si9
  0.3799999999999999    0.0000000000000000    0.6666666666666665 # Si10
  0.5600000000000001    0.8360000000000001    0.7846666666666666 # Si11
  0.5600000000000001    0.7230000000000002    0.8826666666666667 # Si12
  0.5629999999999999    0.4369999999999999    0.0000000000000000 # Si13
  0.3799999999999998    0.3799999999999999    0.0000000000000000 # Si14
  0.7240000000000000    0.5600000000000003    0.1179999999999999 # Si15
  0.8370000000000001    0.5600000000000003    0.2160000000000002 # Si16
  0.1260000000000000    0.5630000000000002    0.3333333333333333 # Si17
 -0.0000000000000001    0.3799999999999999    0.3333333333333333 # Si18
  0.1639999999999998    0.7240000000000000    0.4513333333333333 # Si19
  0.2770000000000000    0.8369999999999999    0.5493333333333335 # Si20
  0.5629999999999997    0.1259999999999999    0.6666666666666665 # Si21
  0.6200000000000001    0.0000000000000000    0.6666666666666665 # Si22
  0.4400000000000001    0.1640000000000001    0.7846666666666666 # Si23
  0.4400000000000001    0.2769999999999999    0.8826666666666667 # Si24
  0.5299999999999999    0.5950000000000003    0.0660000000000000 # O1
  0.3569999999999999    0.5379999999999999    0.0820000000000001 # O2
  0.7039999999999998    0.6380000000000000    0.0740000000000001 # O3
  0.2540000000000001    0.4320000000000001    0.2430000000000002 # O4
  0.1780000000000000    0.4320000000000001    0.0910000000000000 # O5
  0.0659999999999999    0.3620000000000000    0.2600000000000001 # O6
  0.1809999999999997    0.5379999999999999    0.2520000000000000 # O7
  0.0659999999999999    0.5950000000000003    0.2680000000000001 # O8
  0.9350000000000002    0.5300000000000001    0.3993333333333334 # O9
  0.8190000000000000    0.3570000000000002    0.4153333333333334 # O10
  0.0660000000000001    0.7040000000000001    0.4073333333333334 # O11
  0.8220000000000001    0.2540000000000001    0.5763333333333335 # O12
  0.7460000000000002    0.1779999999999999    0.4243333333333333 # O13
  0.7040000000000000    0.0660000000000000    0.5933333333333334 # O14
  0.6430000000000003    0.1810000000000002    0.5853333333333334 # O15
  0.4710000000000001    0.0660000000000000    0.6013333333333334 # O16
  0.4050000000000000    0.9350000000000003    0.7326666666666667 # O17
  0.4619999999999999    0.8190000000000000    0.7486666666666668 # O18
  0.3620000000000000    0.0660000000000000    0.7406666666666668 # O19
  0.5679999999999999    0.8220000000000001    0.9096666666666667 # O20
  0.5679999999999998    0.7459999999999999    0.7576666666666665 # O21
  0.6380000000000001    0.7040000000000001    0.9266666666666667 # O22
  0.4619999999999998    0.6430000000000000    0.9186666666666666 # O23
  0.4050000000000000    0.4710000000000001    0.9346666666666669 # O24
  0.4699999999999999    0.4050000000000001    0.0660000000000000 # O25
  0.6430000000000002    0.4620000000000001    0.0820000000000001 # O26
  0.2959999999999999    0.3620000000000000    0.0740000000000001 # O27
  0.7460000000000000    0.5680000000000001    0.2430000000000002 # O28
  0.8220000000000001    0.5680000000000001    0.0910000000000000 # O29
  0.9339999999999999    0.6380000000000000    0.2600000000000001 # O30
  0.8190000000000000    0.4620000000000001    0.2520000000000000 # O31
  0.9339999999999999    0.4050000000000001    0.2680000000000001 # O32
  0.0649999999999999    0.4700000000000000    0.3993333333333334 # O33
  0.1809999999999999    0.6430000000000000    0.4153333333333334 # O34
  0.9339999999999999    0.2960000000000000    0.4073333333333334 # O35
  0.1779999999999997    0.7459999999999999    0.5763333333333335 # O36
  0.2540000000000000    0.8220000000000001    0.4243333333333333 # O37
  0.2959999999999997    0.9340000000000002    0.5933333333333334 # O38
  0.3569999999999998    0.8190000000000000    0.5853333333333334 # O39
  0.5289999999999999    0.9340000000000002    0.6013333333333334 # O40
  0.5950000000000000    0.0649999999999998    0.7326666666666667 # O41
  0.5380000000000001    0.1810000000000002    0.7486666666666668 # O42
  0.6380000000000001    0.9340000000000002    0.7406666666666668 # O43
  0.4320000000000001    0.1779999999999999    0.9096666666666667 # O44
  0.4320000000000002    0.2540000000000001    0.7576666666666665 # O45
  0.3620000000000002    0.2960000000000000    0.9266666666666667 # O46
  0.5380000000000000    0.3570000000000002    0.9186666666666666 # O47
  0.5950000000000001    0.5289999999999999    0.9346666666666669 # O48
