POSCAR generated by cell class
1.0
 10.4119951007190821    0.0000000000000000    0.0000000000000000
 -5.2059975503595384    9.0170522613018402    0.0000000000000000
  0.0000000000000000    0.0000000000000000   15.1839928552937504
 12 12 60 6
Direct
  0.8424000000000001    0.6848000000000000    0.7500000000000000 # 11
  0.4969500000000000    0.9939000000000000    0.7500000000000000 # 12
  0.1576000000000000    0.8424000000000001    0.5833333333333334 # 13
  0.5030500000000000    0.4969500000000000    0.5833333333333334 # 14
  0.3152000000000000    0.1576000000000000    0.4166666666666667 # 15
  0.0061000000000000    0.5030500000000000    0.4166666666666667 # 16
  0.1576000000000000    0.3152000000000000    0.2500000000000000 # 17
  0.5030500000000000    0.0061000000000000    0.2500000000000000 # 18
  0.8424000000000001    0.1576000000000000    0.0833333333333334 # 19
  0.4969500000000000    0.5030500000000000    0.0833333333333334 # 110
  0.6848000000000000    0.8424000000000001    0.9166666666666666 # 111
  0.9939000000000000    0.4969500000000000    0.9166666666666666 # 112
  0.1704000000000000    0.4060000000000001    0.0601000000000000 # 21
  0.7644000000000000    0.1704000000000000    0.8934333333333334 # 22
  0.5940000000000000    0.7644000000000000    0.7267666666666668 # 23
  0.8296000000000000    0.5940000000000000    0.5601000000000002 # 24
  0.2356000000000000    0.8296000000000000    0.3934333333333334 # 25
  0.4060000000000001    0.2356000000000000    0.2267666666666667 # 26
  0.7644000000000000    0.5940000000000000    0.9399000000000000 # 27
  0.8296000000000000    0.2356000000000000    0.2732333333333334 # 28
  0.4060000000000001    0.1704000000000000    0.6065666666666668 # 29
  0.5940000000000000    0.8296000000000000    0.1065666666666666 # 210
  0.2356000000000000    0.4060000000000001    0.4399000000000000 # 211
  0.1704000000000000    0.7644000000000000    0.7732333333333334 # 212
  0.1976000000000000    0.4597000000000000    0.1566000000000000 # 31
  0.0519000000000000    0.2464000000000000    0.0547000000000000 # 32
  0.3130000000000000    0.4229000000000000    0.0201000000000000 # 33
  0.1292000000000000    0.5030000000000000    0.0075000000000000 # 34
  0.5908000000000000    0.7113000000000002    0.3441000000000000 # 35
  0.7379000000000000    0.1976000000000000    0.9899333333333333 # 36
  0.8055000000000000    0.0519000000000000    0.8880333333333333 # 37
  0.8901000000000000    0.3130000000000000    0.8534333333333334 # 38
  0.6262000000000000    0.1292000000000000    0.8408333333333334 # 39
  0.8794999999999999    0.5908000000000000    0.1774333333333333 # 310
  0.5403000000000000    0.7379000000000000    0.8232666666666668 # 311
  0.7536000000000002    0.8055000000000000    0.7213666666666668 # 312
  0.5770999999999999    0.8901000000000000    0.6867666666666667 # 313
  0.4970000000000000    0.6262000000000000    0.6741666666666668 # 314
  0.2887000000000000    0.8794999999999999    0.0107666666666667 # 315
  0.8024000000000000    0.5403000000000000    0.6566000000000000 # 316
  0.9480999999999999    0.7536000000000002    0.5547000000000002 # 317
  0.6870000000000002    0.5770999999999999    0.5201000000000000 # 318
  0.8708000000000000    0.4970000000000000    0.5075000000000000 # 319
  0.4092000000000000    0.2887000000000000    0.8441000000000000 # 320
  0.2621000000000000    0.8024000000000000    0.4899333333333334 # 321
  0.1945000000000000    0.9480999999999999    0.3880333333333334 # 322
  0.1099000000000000    0.6870000000000002    0.3534333333333334 # 323
  0.3738000000000001    0.8708000000000000    0.3408333333333334 # 324
  0.1205000000000000    0.4092000000000000    0.6774333333333333 # 325
  0.4597000000000000    0.2621000000000000    0.3232666666666667 # 326
  0.2464000000000000    0.1945000000000000    0.2213666666666666 # 327
  0.4229000000000000    0.1099000000000000    0.1867666666666667 # 328
  0.5030000000000000    0.3738000000000001    0.1741666666666667 # 329
  0.7113000000000002    0.1205000000000000    0.5107666666666668 # 330
  0.7379000000000000    0.5403000000000000    0.8434000000000001 # 331
  0.8055000000000000    0.7536000000000002    0.9453000000000000 # 332
  0.8901000000000000    0.5770999999999999    0.9799000000000000 # 333
  0.6262000000000000    0.4970000000000000    0.9924999999999999 # 334
  0.8794999999999999    0.2887000000000000    0.6559000000000001 # 335
  0.8024000000000000    0.2621000000000000    0.1767333333333333 # 336
  0.9480999999999999    0.1945000000000000    0.2786333333333334 # 337
  0.6870000000000002    0.1099000000000000    0.3132333333333334 # 338
  0.8708000000000000    0.3738000000000001    0.3258333333333333 # 339
  0.4092000000000000    0.1205000000000000    0.9892333333333334 # 340
  0.4597000000000000    0.1976000000000000    0.5100666666666668 # 341
  0.2464000000000000    0.0519000000000000    0.6119666666666668 # 342
  0.4229000000000000    0.3130000000000000    0.6465666666666666 # 343
  0.5030000000000000    0.1292000000000000    0.6591666666666668 # 344
  0.7113000000000002    0.5908000000000000    0.3225666666666667 # 345
  0.5403000000000000    0.8024000000000000    0.0100666666666667 # 346
  0.7536000000000002    0.9480999999999999    0.1119666666666667 # 347
  0.5770999999999999    0.6870000000000002    0.1465666666666666 # 348
  0.4970000000000000    0.8708000000000000    0.1591666666666667 # 349
  0.2887000000000000    0.4092000000000000    0.8225666666666668 # 350
  0.2621000000000000    0.4597000000000000    0.3434000000000001 # 351
  0.1945000000000000    0.2464000000000000    0.4453000000000000 # 352
  0.1099000000000000    0.4229000000000000    0.4799000000000000 # 353
  0.3738000000000001    0.5030000000000000    0.4925000000000002 # 354
  0.1205000000000000    0.7113000000000002    0.1559000000000000 # 355
  0.1976000000000000    0.7379000000000000    0.6767333333333334 # 356
  0.0519000000000000    0.8055000000000000    0.7786333333333334 # 357
  0.3130000000000000    0.8901000000000000    0.8132333333333334 # 358
  0.1292000000000000    0.6262000000000000    0.8258333333333334 # 359
  0.5908000000000000    0.8794999999999999    0.4892333333333334 # 360
  0.6712500000000000    0.3425000000000001    0.7500000000000000 # 41
  0.3287500000000000    0.6712500000000000    0.5833333333333334 # 42
  0.6575000000000000    0.3287500000000000    0.4166666666666667 # 43
  0.3287500000000000    0.6575000000000000    0.2500000000000000 # 44
  0.6712500000000000    0.3287500000000000    0.0833333333333334 # 45
  0.3425000000000001    0.6712500000000000    0.9166666666666666 # 46
