$cell vectors
1.0
 10.5125950533825776    0.0000000000000000    0.0000000000000000
 -5.2562975266912852    9.1041743759279381    0.0000000000000000
  0.0000000000000000    0.0000000000000000   14.9375929712352438
 12 12 78 12 24
Direct
  0.6836000000000002    0.8419000000000003    0.0800999999999999 # Co1
  0.4883000000000002    0.5115000000000003    0.2465999999999998 # Co2
  0.8417000000000001    0.6836000000000001    0.9134333333333332 # Co3
  0.9768000000000002    0.4883000000000001    0.0799333333333335 # Co4
  0.1581000000000001    0.8417000000000002    0.7467666666666669 # Co5
  0.4885000000000000    0.9768000000000002    0.9132666666666668 # Co6
  0.3163999999999999    0.1581000000000002    0.5801000000000001 # Co7
  0.5117000000000005    0.4885000000000002    0.7466000000000000 # Co8
  0.1583000000000002    0.3164000000000000    0.4134333333333334 # Co9
  0.0231999999999997    0.5116999999999999    0.5799333333333332 # Co10
  0.8419000000000001    0.1583000000000004    0.2467666666666667 # Co11
  0.5115000000000001    0.0232000000000002    0.4132666666666666 # Co12
  0.7589000000000002    0.1682000000000002    0.0560999999999998 # P1
  0.7588000000000001    0.5907000000000003    0.1068000000000000 # P2
  0.5907000000000000    0.7589000000000000    0.8894333333333335 # P3
  0.1680999999999999    0.7588000000000003    0.9401333333333333 # P4
  0.8318000000000001    0.5907000000000003    0.7227666666666667 # P5
  0.4092999999999998    0.1680999999999998    0.7734666666666665 # P6
  0.2411000000000000    0.8318000000000004    0.5561000000000001 # P7
  0.2412000000000001    0.4093000000000001    0.6068000000000002 # P8
  0.4092999999999998    0.2410999999999999    0.3894333333333332 # P9
  0.8319000000000003    0.2412000000000004    0.4401333333333332 # P10
  0.1682000000000001    0.4093000000000001    0.2227666666666665 # P11
  0.5907000000000000    0.8319000000000001    0.2734666666666665 # P12
  0.8045999999999999    0.7538000000000001    0.1093000000000000 # O1
  0.8052999999999999    0.0512999999999997    0.0549000000000000 # O2
  0.6150999999999999    0.4973999999999998    0.1560000000000000 # O3
  0.5023000000000000    0.3848000000000003    0.3400000000000000 # O4
  0.5684999999999998    0.6909999999999997    0.3190000000000000 # O5
  0.5375000000000002    0.7420000000000002    0.9872999999999998 # O6
  0.5360000000000003    0.7949000000000005    0.1771999999999998 # O7
  0.3084999999999999    0.4298999999999999    0.1784000000000000 # O8
  0.3967999999999998    0.4009999999999999    0.9917000000000001 # O9
  0.4187000000000002    0.1853000000000003    0.0991999999999998 # O10
  0.3246000000000000    0.9386000000000003    0.1764999999999998 # O11
  0.2931999999999999    0.4067000000000003    0.9894999999999998 # O12
  0.2553999999999999    0.8383000000000003    0.1969999999999998 # O13
  0.0508000000000002    0.8046000000000002    0.9426333333333332 # O14
  0.7540000000000002    0.8052999999999999    0.8882333333333333 # O15
  0.1177000000000002    0.6150999999999999    0.9893333333333334 # O16
  0.1175000000000001    0.5023000000000001    0.1733333333333333 # O17
  0.8775000000000002    0.5685000000000003    0.1523333333333332 # O18
  0.7955000000000003    0.5375000000000001    0.8206333333333335 # O19
  0.7410999999999999    0.5360000000000003    0.0105333333333334 # O20
  0.8786000000000000    0.3085000000000001    0.0117333333333332 # O21
  0.9958000000000001    0.3967999999999999    0.8250333333333331 # O22
  0.2334000000000002    0.4186999999999999    0.9325333333333330 # O23
  0.3859999999999997    0.3245999999999998    0.0098333333333334 # O24
  0.8865000000000001    0.2932000000000003    0.8228333333333331 # O25
  0.4171000000000000    0.2554000000000000    0.0303333333333334 # O26
  0.2461999999999999    0.0508000000000001    0.7759666666666668 # O27
  0.9487000000000003    0.7540000000000002    0.7215666666666665 # O28
  0.5025999999999998    0.1177000000000001    0.8226666666666667 # O29
  0.6152000000000002    0.1174999999999999    0.0066666666666665 # O30
  0.3090000000000004    0.8775000000000005    0.9856666666666666 # O31
  0.2580000000000002    0.7955000000000003    0.6539666666666664 # O32
  0.2050999999999999    0.7411000000000003    0.8438666666666668 # O33
  0.5701000000000002    0.8786000000000000    0.8450666666666665 # O34
  0.5990000000000002    0.9957999999999999    0.6583666666666667 # O35
  0.8147000000000003    0.2334000000000002    0.7658666666666664 # O36
  0.0613999999999998    0.3860000000000001    0.8431666666666663 # O37
  0.5932999999999999    0.8865000000000000    0.6561666666666663 # O38
  0.1617000000000003    0.4171000000000004    0.8636666666666667 # O39
  0.1954000000000001    0.2461999999999998    0.6093000000000003 # O40
  0.1946999999999999    0.9487000000000003    0.5548999999999998 # O41
  0.3849000000000000    0.5026000000000000    0.6560000000000001 # O42
  0.4977000000000001    0.6152000000000002    0.8400000000000000 # O43
  0.4315000000000001    0.3090000000000001    0.8190000000000001 # O44
  0.4625000000000002    0.2579999999999998    0.4872999999999997 # O45
  0.4640000000000000    0.2051000000000000    0.6772000000000000 # O46
  0.6915000000000000    0.5700999999999999    0.6784000000000001 # O47
  0.6032000000000001    0.5990000000000001    0.4916999999999999 # O48
  0.5812999999999999    0.8147000000000002    0.5991999999999997 # O49
  0.6753999999999999    0.0613999999999997    0.6764999999999997 # O50
  0.7068000000000001    0.5933000000000003    0.4894999999999999 # O51
  0.7445999999999999    0.1616999999999997    0.6969999999999996 # O52
  0.9492000000000005    0.1954000000000003    0.4426333333333331 # O53
  0.2460000000000001    0.1947000000000000    0.3882333333333332 # O54
  0.8823000000000002    0.3849000000000000    0.4893333333333332 # O55
  0.8825000000000005    0.4977000000000004    0.6733333333333335 # O56
  0.1224999999999998    0.4315000000000001    0.6523333333333333 # O57
  0.2045000000000001    0.4624999999999999    0.3206333333333333 # O58
  0.2589000000000002    0.4640000000000004    0.5105333333333333 # O59
  0.1213999999999999    0.6915000000000004    0.5117333333333335 # O60
  0.0042000000000001    0.6032000000000001    0.3250333333333331 # O61
  0.7666000000000001    0.5812999999999999    0.4325333333333333 # O62
  0.6140000000000002    0.6754000000000001    0.5098333333333332 # O63
  0.1135000000000002    0.7068000000000003    0.3228333333333329 # O64
  0.5828999999999999    0.7445999999999999    0.5303333333333329 # O65
  0.7538000000000002    0.9492000000000005    0.2759666666666667 # O66
  0.0513000000000003    0.2460000000000003    0.2215666666666667 # O67
  0.4974000000000003    0.8823000000000005    0.3226666666666664 # O68
  0.3847999999999999    0.8825000000000006    0.5066666666666668 # O69
  0.6909999999999997    0.1225000000000000    0.4856666666666666 # O70
  0.7419999999999998    0.2045000000000001    0.1539666666666666 # O71
  0.7949000000000003    0.2589000000000003    0.3438666666666665 # O72
  0.4298999999999997    0.1214000000000000    0.3450666666666666 # O73
  0.4010000000000001    0.0042000000000000    0.1583666666666668 # O74
  0.1853000000000004    0.7666000000000005    0.2658666666666665 # O75
  0.9385999999999999    0.6139999999999998    0.3431666666666665 # O76
  0.4067000000000000    0.1135000000000000    0.1561666666666669 # O77
  0.8382999999999999    0.5829000000000002    0.3636666666666665 # O78
  0.3299999999999998    0.6333000000000001    0.0742999999999999 # Na1
  0.3370999999999998    0.7006000000000003    0.0884999999999999 # Na2
  0.6967000000000001    0.3300000000000003    0.9076333333333333 # Na3
  0.6365000000000001    0.3371000000000001    0.9218333333333333 # Na4
  0.3667000000000001    0.6967000000000002    0.7409666666666664 # Na5
  0.2993999999999999    0.6365000000000003    0.7551666666666664 # Na6
  0.6700000000000000    0.3666999999999999    0.5743000000000001 # Na7
  0.6629000000000003    0.2994000000000002    0.5885000000000001 # Na8
  0.3033000000000000    0.6700000000000003    0.4076333333333331 # Na9
  0.3634999999999999    0.6629000000000005    0.4218333333333333 # Na10
  0.6332999999999999    0.3033000000000003    0.2409666666666666 # Na11
  0.7006000000000002    0.3635000000000002    0.2551666666666667 # Na12
  0.0775000000000002    0.0744999999999999    0.9894999999999998 # N1
  0.0547000000000000    0.0888000000000000    0.9344999999999998 # N2
  0.0097000000000002    0.0699000000000001    0.8829999999999999 # N3
  0.0985000000000002    0.1938000000000002    0.0432000000000000 # N4
  0.0030000000000000    0.0775000000000001    0.8228333333333333 # N5
  0.9659000000000003    0.0547000000000002    0.7678333333333335 # N6
  0.9398000000000002    0.0097000000000003    0.7163333333333334 # N7
  0.9047000000000001    0.0985000000000003    0.8765333333333334 # N8
  0.9255000000000003    0.0030000000000002    0.6561666666666667 # N9
  0.9112000000000001    0.9659000000000003    0.6011666666666666 # N10
  0.9301000000000004    0.9398000000000002    0.5496666666666667 # N11
  0.8061999999999999    0.9047000000000001    0.7098666666666665 # N12
  0.9225000000000002    0.9255000000000001    0.4894999999999999 # N13
  0.9452999999999998    0.9112000000000001    0.4345000000000000 # N14
  0.9903000000000000    0.9301000000000004    0.3830000000000001 # N15
  0.9015000000000004    0.8062000000000004    0.5431999999999998 # N16
  0.9969999999999999    0.9224999999999998    0.3228333333333332 # N17
  0.0341000000000000    0.9453000000000005    0.2678333333333332 # N18
  0.0602000000000001    0.9903000000000002    0.2163333333333332 # N19
  0.0952999999999998    0.9015000000000003    0.3765333333333335 # N20
  0.0744999999999999    0.9970000000000006    0.1561666666666669 # N21
  0.0887999999999998    0.0340999999999998    0.1011666666666665 # N22
  0.0699000000000002    0.0601999999999999    0.0496666666666669 # N23
  0.1937999999999999    0.0952999999999999    0.2098666666666667 # N24
