$cell vectors
1.0
  7.1099966544480102    0.0000000000000000    0.0000000000000000
 -3.5549983272240024    6.1574377235743452    0.0000000000000000
  0.0000000000000000    0.0000000000000000   19.3399908997221459
 12 18
Direct
  0.6858000000000002    0.9890000000000003    0.1384000000000001 # In1
  0.3415999999999998    0.3260000000000001    0.1662999999999999 # In2
  0.6967999999999998    0.6857999999999997    0.3050666666666668 # In3
  0.0156000000000001    0.3416000000000002    0.3329666666666666 # In4
  0.0109999999999997    0.6967999999999998    0.4717333333333332 # In5
  0.6739999999999996    0.0156000000000001    0.4996333333333334 # In6
  0.3141999999999998    0.0109999999999998    0.6384000000000000 # In7
  0.6583999999999994    0.6739999999999997    0.6663000000000000 # In8
  0.3032000000000001    0.3142000000000001    0.8050666666666669 # In9
  0.9843999999999997    0.6583999999999998    0.8329666666666665 # In10
  0.9889999999999997    0.3032000000000003    0.9717333333333331 # In11
  0.3260000000000003    0.9843999999999999    0.9996333333333333 # In12
  0.3025999999999996    0.9569999999999996    0.1348000000000001 # Se1
  0.0250000000000001    0.3645999999999999    0.1234999999999999 # Se2
  0.7257999999999997    0.6530000000000004    0.1582000000000000 # Se3
  0.3456000000000005    0.3025999999999999    0.3014666666666668 # Se4
  0.6603999999999993    0.0249999999999996    0.2901666666666666 # Se5
  0.0727999999999999    0.7258000000000000    0.3248666666666666 # Se6
  0.0429999999999999    0.3456000000000001    0.4681333333333335 # Se7
  0.6354000000000000    0.6603999999999998    0.4568333333333333 # Se8
  0.3469999999999996    0.0727999999999999    0.4915333333333334 # Se9
  0.6974000000000002    0.0430000000000002    0.6348000000000001 # Se10
  0.9749999999999999    0.6354000000000002    0.6235000000000001 # Se11
  0.2741999999999996    0.3469999999999997    0.6582000000000001 # Se12
  0.6543999999999995    0.6974000000000000    0.8014666666666665 # Se13
  0.3395999999999993    0.9749999999999995    0.7901666666666667 # Se14
  0.9272000000000000    0.2741999999999999    0.8248666666666667 # Se15
  0.9569999999999994    0.6543999999999999    0.9681333333333334 # Se16
  0.3646000000000000    0.3396000000000003    0.9568333333333330 # Se17
  0.6529999999999996    0.9271999999999999    0.9915333333333336 # Se18
