$cell vectors
1.0
 13.8019935055824767    0.0000000000000000    0.0000000000000000
 -6.9009967527912330   11.9528769987022603    0.0000000000000000
  0.0000000000000000    0.0000000000000000    8.5029959989833230
 12 12 48 6
Direct
  0.4532000000000000    0.3277000000000003    0.0530000000000001 # P1
  0.1255000000000000    0.4532000000000000    0.0530000000000001 # P2
  0.6723000000000001    0.1255000000000002    0.0530000000000001 # P3
  0.5467999999999998    0.6723000000000002    0.0530000000000001 # P4
  0.8745000000000001    0.5468000000000001    0.0530000000000001 # P5
  0.3276999999999998    0.8745000000000004    0.0530000000000001 # P6
  0.8745000000000001    0.3277000000000003    0.5529999999999998 # P7
  0.4531999999999999    0.1255000000000002    0.5529999999999998 # P8
  0.6722999999999999    0.5468000000000001    0.5529999999999998 # P9
  0.3277000000000001    0.4532000000000000    0.5529999999999998 # P10
  0.1254999999999999    0.6723000000000002    0.5529999999999998 # P11
  0.5468000000000000    0.8745000000000004    0.5529999999999998 # P12
  0.4555999999999999    0.3370999999999999    0.4250000000000000 # Al1
  0.1185000000000002    0.4556000000000002    0.4250000000000000 # Al2
  0.6629000000000000    0.1185000000000002    0.4250000000000000 # Al3
  0.5444000000000000    0.6629000000000000    0.4250000000000000 # Al4
  0.8815000000000000    0.5444000000000000    0.4250000000000000 # Al5
  0.3371000000000001    0.8815000000000003    0.4250000000000000 # Al6
  0.8814999999999995    0.3370999999999999    0.9249999999999997 # Al7
  0.4555999999999999    0.1185000000000002    0.9249999999999997 # Al8
  0.6629000000000000    0.5444000000000000    0.9249999999999997 # Al9
  0.3371000000000001    0.4556000000000002    0.9249999999999997 # Al10
  0.1184999999999999    0.6629000000000000    0.9249999999999997 # Al11
  0.5443999999999999    0.8815000000000003    0.9249999999999997 # Al12
  0.3626000000000001    0.3587000000000000    0.0011000000000003 # O1
  0.4196000000000000    0.2140999999999999    0.0077000000000002 # O2
  0.5659999999999998    0.4103000000000000    0.9949999999999997 # O3
  0.4539999999999998    0.3295000000000002    0.2389000000000002 # O4
  0.0039000000000000    0.3626000000000002    0.0011000000000003 # O5
  0.2055000000000000    0.4195999999999999    0.0077000000000002 # O6
  0.1556999999999999    0.5660000000000002    0.9949999999999997 # O7
  0.1245000000000003    0.4540000000000003    0.2389000000000002 # O8
  0.6412999999999999    0.0039000000000002    0.0011000000000003 # O9
  0.7859000000000002    0.2055000000000001    0.0077000000000002 # O10
  0.5897000000000000    0.1557000000000001    0.9949999999999997 # O11
  0.6704999999999999    0.1245000000000001    0.2389000000000002 # O12
  0.6374000000000000    0.6412999999999999    0.0011000000000003 # O13
  0.5804000000000000    0.7859000000000002    0.0077000000000002 # O14
  0.4340000000000002    0.5897000000000001    0.9949999999999997 # O15
  0.5459999999999999    0.6705000000000002    0.2389000000000002 # O16
  0.9961000000000000    0.6374000000000003    0.0011000000000003 # O17
  0.7945000000000000    0.5804000000000000    0.0077000000000002 # O18
  0.8442999999999997    0.4339999999999999    0.9949999999999997 # O19
  0.8754999999999999    0.5460000000000002    0.2389000000000002 # O20
  0.3587000000000000    0.9961000000000003    0.0011000000000003 # O21
  0.2141000000000001    0.7945000000000000    0.0077000000000002 # O22
  0.4102999999999999    0.8443000000000004    0.9949999999999997 # O23
  0.3295000000000000    0.8755000000000005    0.2389000000000002 # O24
  0.9960999999999995    0.3587000000000000    0.5011000000000001 # O25
  0.7944999999999997    0.2140999999999999    0.5076999999999999 # O26
  0.8442999999999998    0.4103000000000000    0.4949999999999999 # O27
  0.8755000000000001    0.3295000000000002    0.7389000000000000 # O28
  0.3626000000000002    0.0039000000000002    0.5011000000000001 # O29
  0.4195999999999998    0.2055000000000001    0.5076999999999999 # O30
  0.5659999999999999    0.1557000000000001    0.4949999999999999 # O31
  0.4540000000000000    0.1245000000000001    0.7389000000000000 # O32
  0.6413000000000000    0.6374000000000003    0.5011000000000001 # O33
  0.7858999999999999    0.5804000000000000    0.5076999999999999 # O34
  0.5896999999999999    0.4339999999999999    0.4949999999999999 # O35
  0.6705000000000001    0.5460000000000002    0.7389000000000000 # O36
  0.3586999999999999    0.3626000000000002    0.5011000000000001 # O37
  0.2141000000000000    0.4195999999999999    0.5076999999999999 # O38
  0.4102999999999999    0.5660000000000002    0.4949999999999999 # O39
  0.3295000000000002    0.4540000000000003    0.7389000000000000 # O40
  0.0038999999999996    0.6412999999999999    0.5011000000000001 # O41
  0.2054999999999999    0.7859000000000002    0.5076999999999999 # O42
  0.1556999999999999    0.5897000000000001    0.4949999999999999 # O43
  0.1245000000000002    0.6705000000000002    0.7389000000000000 # O44
  0.6374000000000001    0.9961000000000003    0.5011000000000001 # O45
  0.5803999999999998    0.7945000000000000    0.5076999999999999 # O46
  0.4340000000000003    0.8443000000000004    0.4949999999999999 # O47
  0.5460000000000003    0.8755000000000005    0.7389000000000000 # O48
  0.5000000000000001    0.5000000000000002    0.3179000000000002 # F1
  0.0000000000000002    0.5000000000000002    0.3179000000000002 # F2
  0.5000000000000000    0.0000000000000000    0.3179000000000002 # F3
  0.0000000000000002    0.5000000000000002    0.8178999999999998 # F4
  0.5000000000000000    0.0000000000000000    0.8178999999999998 # F5
  0.5000000000000001    0.5000000000000002    0.8178999999999998 # F6
