POSCAR generated by cell class
1.0
  3.5869983121666702    0.0000000000000000    0.0000000000000000
 -1.7934991560833300    3.1064316616682399    0.0000000000000000
  0.0000000000000000    0.0000000000000000   15.4919927103668797
 4 4
Direct
  0.3333333333333333    0.6666666666666666    0.1710000000000000 # 11
  0.6666666666666666    0.3333333333333333    0.8290000000000000 # 12
  0.6666666666666666    0.3333333333333333    0.6710000000000002 # 13
  0.3333333333333333    0.6666666666666666    0.3290000000000000 # 14
  0.3333333333333333    0.6666666666666666    0.6016000000000000 # 21
  0.6666666666666666    0.3333333333333333    0.3984000000000000 # 22
  0.6666666666666666    0.3333333333333333    0.1016000000000000 # 23
  0.3333333333333333    0.6666666666666666    0.8984000000000000 # 24
