POSCAR generated by cell class
1.0
 12.3199942029253826    0.0000000000000000    0.0000000000000000
 -6.1599971014626886   10.6694279542103985    0.0000000000000000
  0.0000000000000000    0.0000000000000000    9.8799953510473006
 72 18 18
Direct
  0.5110000000000000    0.7550000000000000    0.0000000000000000 # 11
  0.5120000000000000    0.5960000000000000    0.1150000000000000 # 12
  0.8990000000000000    0.0900000000000000    0.0000000000000000 # 13
  0.0730000000000000    0.2310000000000000    0.1150000000000000 # 14
  0.5290000000000000    0.0950000000000000    0.0000000000000000 # 15
  0.4280000000000000    0.1780000000000000    0.1150000000000000 # 16
  0.5010000000000000    0.7030000000000000    0.5000000000000000 # 17
  0.4190000000000000    0.5190000000000000    0.6150000000000000 # 18
  0.5720000000000000    0.4330000000000000    0.5000000000000000 # 19
  0.4220000000000000    0.2650000000000000    0.6150000000000000 # 110
  0.1830000000000000    0.0960000000000000    0.5000000000000000 # 111
  0.1690000000000000    0.2480000000000000    0.6150000000000000 # 112
  0.0000000000000000    0.0000000000000000    0.2720000000000001 # 113
  0.3333333333333333    0.6666666666666666    0.2300000000000000 # 114
  0.6666666666666666    0.3333333333333333    0.2300000000000000 # 115
  0.3390000000000001    0.0190000000000000    0.3210000000000000 # 116
  0.6540000000000000    0.9880000000000000    0.1800000000000000 # 117
  0.2440000000000000    0.4890000000000000    0.0000000000000000 # 118
  0.0840000000000000    0.4880000000000000    0.8850000000000000 # 119
  0.1910000000000000    0.1010000000000000    0.0000000000000000 # 120
  0.1580000000000000    0.9269999999999999    0.8850000000000000 # 121
  0.5659999999999999    0.4710000000000000    0.0000000000000000 # 122
  0.7500000000000000    0.5720000000000000    0.8850000000000000 # 123
  0.2020000000000000    0.4990000000000000    0.5000000000000000 # 124
  0.1000000000000000    0.5810000000000000    0.3850000000000000 # 125
  0.8610000000000000    0.4280000000000000    0.5000000000000000 # 126
  0.8430000000000000    0.5780000000000000    0.3850000000000000 # 127
  0.9130000000000000    0.8169999999999999    0.5000000000000000 # 128
  0.0790000000000000    0.8310000000000000    0.3850000000000000 # 129
  0.0000000000000000    0.0000000000000000    0.7280000000000000 # 130
  0.3333333333333333    0.6666666666666666    0.7700000000000000 # 131
  0.6666666666666666    0.3333333333333333    0.7700000000000000 # 132
  0.6800000000000002    0.6610000000000000    0.6790000000000002 # 133
  0.3340000000000001    0.3460000000000000    0.8200000000000000 # 134
  0.2450000000000000    0.7560000000000000    0.0000000000000000 # 135
  0.4040000000000001    0.9159999999999999    0.1150000000000000 # 136
  0.9100000000000000    0.8090000000000002    0.0000000000000000 # 137
  0.7690000000000000    0.8420000000000000    0.1150000000000000 # 138
  0.9050000000000000    0.4340000000000000    0.0000000000000000 # 139
  0.8220000000000000    0.2500000000000000    0.1150000000000000 # 140
  0.2970000000000000    0.7980000000000002    0.5000000000000000 # 141
  0.4810000000000000    0.9000000000000000    0.6150000000000000 # 142
  0.5669999999999999    0.1390000000000000    0.5000000000000000 # 143
  0.7350000000000000    0.1570000000000000    0.6150000000000000 # 144
  0.9040000000000000    0.0870000000000000    0.5000000000000000 # 145
  0.7520000000000000    0.9209999999999999    0.6150000000000000 # 146
  0.9810000000000000    0.3200000000000000    0.3210000000000000 # 147
  0.0120000000000000    0.6660000000000001    0.1800000000000000 # 148
  0.5120000000000000    0.5960000000000000    0.8850000000000000 # 149
  0.0730000000000000    0.2310000000000000    0.8850000000000000 # 150
  0.4280000000000000    0.1780000000000000    0.8850000000000000 # 151
  0.4190000000000000    0.5190000000000000    0.3850000000000000 # 152
  0.4220000000000000    0.2650000000000000    0.3850000000000000 # 153
  0.1690000000000000    0.2480000000000000    0.3850000000000000 # 154
  0.3390000000000001    0.0190000000000000    0.6790000000000002 # 155
  0.6540000000000000    0.9880000000000000    0.8200000000000000 # 156
  0.0840000000000000    0.4880000000000000    0.1150000000000000 # 157
  0.1580000000000000    0.9269999999999999    0.1150000000000000 # 158
  0.7500000000000000    0.5720000000000000    0.1150000000000000 # 159
  0.1000000000000000    0.5810000000000000    0.6150000000000000 # 160
  0.8430000000000000    0.5780000000000000    0.6150000000000000 # 161
  0.0790000000000000    0.8310000000000000    0.6150000000000000 # 162
  0.6800000000000002    0.6610000000000000    0.3210000000000000 # 163
  0.3340000000000001    0.3460000000000000    0.1800000000000000 # 164
  0.4040000000000001    0.9159999999999999    0.8850000000000000 # 165
  0.7690000000000000    0.8420000000000000    0.8850000000000000 # 166
  0.8220000000000000    0.2500000000000000    0.8850000000000000 # 167
  0.4810000000000000    0.9000000000000000    0.3850000000000000 # 168
  0.7350000000000000    0.1570000000000000    0.3850000000000000 # 169
  0.7520000000000000    0.9209999999999999    0.3850000000000000 # 170
  0.9810000000000000    0.3200000000000000    0.6790000000000002 # 171
  0.0120000000000000    0.6660000000000001    0.8200000000000000 # 172
  0.5100000000000000    0.6480000000000000    0.0000000000000000 # 21
  0.0144000000000000    0.1850000000000000    0.0000000000000000 # 22
  0.4600000000000000    0.1490000000000000    0.0000000000000000 # 23
  0.4440000000000000    0.5800000000000000    0.5000000000000000 # 24
  0.4700000000000000    0.3220000000000000    0.5000000000000000 # 25
  0.1710000000000000    0.1960000000000000    0.5000000000000000 # 26
  0.1380000000000000    0.4900000000000000    0.0000000000000000 # 27
  0.1706000000000000    0.9856000000000000    0.0000000000000000 # 28
  0.6889999999999999    0.5400000000000000    0.0000000000000000 # 29
  0.1360000000000000    0.5560000000000002    0.5000000000000000 # 210
  0.8520000000000000    0.5300000000000000    0.5000000000000000 # 211
  0.0250000000000000    0.8290000000000000    0.5000000000000000 # 212
  0.3520000000000000    0.8620000000000000    0.0000000000000000 # 213
  0.8149999999999999    0.8294000000000000    0.0000000000000000 # 214
  0.8510000000000000    0.3110000000000000    0.0000000000000000 # 215
  0.4200000000000000    0.8640000000000000    0.5000000000000000 # 216
  0.6780000000000002    0.1480000000000000    0.5000000000000000 # 217
  0.8040000000000002    0.9750000000000000    0.5000000000000000 # 218
  0.2284000000000000    0.1226000000000000    0.2375000000000000 # 31
  0.2092000000000000    0.4363000000000001    0.2638000000000000 # 32
  0.5515000000000000    0.1060000000000000    0.2537000000000000 # 33
  0.8942000000000000    0.7716000000000000    0.7625000000000000 # 34
  0.2271000000000000    0.7907999999999999    0.7362000000000000 # 35
  0.5545000000000000    0.4485000000000000    0.7463000000000000 # 36
  0.8774000000000000    0.1058000000000000    0.2375000000000000 # 37
  0.5637000000000000    0.7729000000000000    0.2638000000000000 # 38
  0.8940000000000000    0.4455000000000000    0.2537000000000000 # 39
  0.2284000000000000    0.1226000000000000    0.7625000000000000 # 310
  0.2092000000000000    0.4363000000000001    0.7362000000000000 # 311
  0.5515000000000000    0.1060000000000000    0.7463000000000000 # 312
  0.8942000000000000    0.7716000000000000    0.2375000000000000 # 313
  0.2271000000000000    0.7907999999999999    0.2638000000000000 # 314
  0.5545000000000000    0.4485000000000000    0.2537000000000000 # 315
  0.8774000000000000    0.1058000000000000    0.7625000000000000 # 316
  0.5637000000000000    0.7729000000000000    0.7362000000000000 # 317
  0.8940000000000000    0.4455000000000000    0.7463000000000000 # 318
