POSCAR generated by cell class
1.0
  8.1539961632024003    0.0000000000000000    0.0000000000000000
 -4.0769980816011984    7.0615678196941225    0.0000000000000000
  0.0000000000000000    0.0000000000000000    6.1369971122851501
 6 6
Direct
  0.3110000000000000    0.0000000000000000    0.0000000000000000 # 11
  0.6461000000000000    0.0000000000000000    0.5000000000000000 # 12
  0.6889999999999999    0.6889999999999999    0.0000000000000000 # 13
  0.3539000000000000    0.3539000000000000    0.5000000000000000 # 14
  0.0000000000000000    0.3110000000000000    0.0000000000000000 # 15
  0.0000000000000000    0.6461000000000000    0.5000000000000000 # 16
  0.0000000000000000    0.0000000000000000    0.2992000000000001 # 21
  0.3333333333333333    0.6666666666666666    0.2090000000000000 # 22
  0.0000000000000000    0.0000000000000000    0.7008000000000000 # 23
  0.3333333333333333    0.6666666666666666    0.7910000000000001 # 24
  0.6666666666666666    0.3333333333333333    0.7910000000000001 # 25
  0.6666666666666666    0.3333333333333333    0.2090000000000000 # 26
