POSCAR generated by cell class
1.0
 11.2569947031112800    0.0000000000000000    0.0000000000000000
 -5.6284973515556400    9.7488433831612404    0.0000000000000000
  0.0000000000000000    0.0000000000000000    5.8529972459190196
 9 7 15 2
Direct
  0.5000000000000000    0.0000000000000000    0.0000000000000000 # 11
  0.2070000000000000    0.4140000000000000    0.5000000000000000 # 12
  0.7930000000000001    0.5860000000000000    0.5000000000000000 # 13
  0.5000000000000000    0.5000000000000000    0.0000000000000000 # 14
  0.7930000000000001    0.2070000000000000    0.5000000000000000 # 15
  0.2070000000000000    0.7930000000000001    0.5000000000000000 # 16
  0.0000000000000000    0.5000000000000000    0.0000000000000000 # 17
  0.5860000000000000    0.7930000000000001    0.5000000000000000 # 18
  0.4140000000000000    0.2070000000000000    0.5000000000000000 # 19
  0.0000000000000000    0.0000000000000000    0.5000000000000000 # 21
  0.1310000000000000    0.2620000000000000    0.0000000000000000 # 22
  0.8690000000000000    0.7380000000000000    0.0000000000000000 # 23
  0.8690000000000000    0.1310000000000000    0.0000000000000000 # 24
  0.1310000000000000    0.8690000000000000    0.0000000000000000 # 25
  0.7380000000000000    0.8690000000000000    0.0000000000000000 # 26
  0.2620000000000000    0.1310000000000000    0.0000000000000000 # 27
  0.5000000000000000    0.0000000000000000    0.5000000000000000 # 31
  0.2500000000000000    0.0000000000000000    0.2170000000000000 # 32
  0.7500000000000000    0.0000000000000000    0.7830000000000000 # 33
  0.5000000000000000    0.5000000000000000    0.5000000000000000 # 34
  0.2500000000000000    0.2500000000000000    0.2170000000000000 # 35
  0.7500000000000000    0.7500000000000000    0.7830000000000000 # 36
  0.0000000000000000    0.5000000000000000    0.5000000000000000 # 37
  0.0000000000000000    0.2500000000000000    0.2170000000000000 # 38
  0.0000000000000000    0.7500000000000000    0.7830000000000000 # 39
  0.7500000000000000    0.0000000000000000    0.2170000000000000 # 310
  0.2500000000000000    0.0000000000000000    0.7830000000000000 # 311
  0.7500000000000000    0.7500000000000000    0.2170000000000000 # 312
  0.2500000000000000    0.2500000000000000    0.7830000000000000 # 313
  0.0000000000000000    0.7500000000000000    0.2170000000000000 # 314
  0.0000000000000000    0.2500000000000000    0.7830000000000000 # 315
  0.3333333333333333    0.6666666666666666    0.0000000000000000 # 41
  0.6666666666666666    0.3333333333333333    0.0000000000000000 # 42
