POSCAR generated by cell class
1.0
  9.7489954126882701    0.0000000000000000    0.0000000000000000
 -4.8744977063441404    8.4428776887660000    0.0000000000000000
  0.0000000000000000    0.0000000000000000   16.4699922501770288
 20 14 6
Direct
  0.3333333333333333    0.6666666666666666    0.2500000000000000 # 11
  0.3333333333333333    0.6666666666666666    0.0000000000000000 # 12
  0.2522000000000000    0.0000000000000000    0.4018000000000001 # 13
  0.6666666666666666    0.3333333333333333    0.7500000000000000 # 14
  0.6666666666666666    0.3333333333333333    0.0000000000000000 # 15
  0.7478000000000000    0.0000000000000000    0.5982000000000000 # 16
  0.6666666666666666    0.3333333333333333    0.5000000000000000 # 17
  0.2522000000000000    0.2522000000000000    0.9017999999999999 # 18
  0.3333333333333333    0.6666666666666666    0.5000000000000000 # 19
  0.7478000000000000    0.7478000000000000    0.0982000000000000 # 110
  0.0000000000000000    0.2522000000000000    0.4018000000000001 # 111
  0.0000000000000000    0.7478000000000000    0.5982000000000000 # 112
  0.7478000000000000    0.0000000000000000    0.9017999999999999 # 113
  0.2522000000000000    0.0000000000000000    0.0982000000000000 # 114
  0.7478000000000000    0.7478000000000000    0.4018000000000001 # 115
  0.2522000000000000    0.2522000000000000    0.5982000000000000 # 116
  0.0000000000000000    0.7478000000000000    0.9017999999999999 # 117
  0.0000000000000000    0.2522000000000000    0.0982000000000000 # 118
  0.6666666666666666    0.3333333333333333    0.2500000000000000 # 119
  0.3333333333333333    0.6666666666666666    0.7500000000000000 # 120
  0.3955000000000001    0.0000000000000000    0.8832000000000000 # 21
  0.0000000000000000    0.0000000000000000    0.2500000000000000 # 22
  0.6045000000000000    0.0000000000000000    0.1168000000000000 # 23
  0.0000000000000000    0.0000000000000000    0.7500000000000000 # 24
  0.3955000000000001    0.3955000000000001    0.3832000000000000 # 25
  0.6045000000000000    0.6045000000000000    0.6168000000000000 # 26
  0.0000000000000000    0.3955000000000001    0.8832000000000000 # 27
  0.0000000000000000    0.6045000000000000    0.1168000000000000 # 28
  0.6045000000000000    0.0000000000000000    0.3832000000000000 # 29
  0.3955000000000001    0.0000000000000000    0.6168000000000000 # 210
  0.6045000000000000    0.6045000000000000    0.8832000000000000 # 211
  0.3955000000000001    0.3955000000000001    0.1168000000000000 # 212
  0.0000000000000000    0.6045000000000000    0.3832000000000000 # 213
  0.0000000000000000    0.3955000000000001    0.6168000000000000 # 214
  0.0000000000000000    0.7270000000000000    0.2500000000000000 # 31
  0.0000000000000000    0.2730000000000001    0.7500000000000000 # 32
  0.2730000000000001    0.0000000000000000    0.7500000000000000 # 33
  0.7270000000000000    0.0000000000000000    0.2500000000000000 # 34
  0.2730000000000001    0.2730000000000001    0.2500000000000000 # 35
  0.7270000000000000    0.7270000000000000    0.7500000000000000 # 36
