POSCAR generated by cell class
1.0
 12.6520940466584602    0.0000000000000000    0.0000000000000000
 -6.3260470233292274   10.9570348554760866    0.0000000000000000
  0.0000000000000000    0.0000000000000000    9.1380957001422392
 54 14
Direct
  0.3333333333333333    0.6666666666666666    0.0000000000000000 # 11
  0.3333333333333333    0.6666666666666666    0.3090000000000000 # 12
  0.0120000000000000    0.1270000000000000    0.0000000000000000 # 13
  0.2400000000000000    0.0600000000000000    0.5000000000000000 # 14
  0.0680000000000000    0.2620000000000000    0.2410000000000000 # 15
  0.1150000000000000    0.4980000000000000    0.1490000000000000 # 16
  0.4390000000000000    0.1050000000000000    0.3260000000000000 # 17
  0.6666666666666666    0.3333333333333333    0.0000000000000000 # 18
  0.6666666666666666    0.3333333333333333    0.6909999999999999 # 19
  0.9880000000000000    0.8730000000000000    0.0000000000000000 # 110
  0.7600000000000000    0.9399999999999999    0.5000000000000000 # 111
  0.9319999999999999    0.7380000000000000    0.7590000000000000 # 112
  0.8850000000000000    0.5020000000000000    0.8510000000000000 # 113
  0.5610000000000002    0.8950000000000000    0.6740000000000002 # 114
  0.6666666666666666    0.3333333333333333    0.3090000000000000 # 115
  0.8850000000000000    0.0120000000000000    0.0000000000000000 # 116
  0.1800000000000000    0.2400000000000000    0.5000000000000000 # 117
  0.8060000000000002    0.0680000000000000    0.2410000000000000 # 118
  0.6170000000000000    0.1150000000000000    0.1490000000000000 # 119
  0.3340000000000001    0.4390000000000000    0.3260000000000000 # 120
  0.3333333333333333    0.6666666666666666    0.6909999999999999 # 121
  0.1150000000000000    0.9880000000000000    0.0000000000000000 # 122
  0.8200000000000000    0.7600000000000000    0.5000000000000000 # 123
  0.1940000000000000    0.9319999999999999    0.7590000000000000 # 124
  0.3830000000000000    0.8850000000000000    0.8510000000000000 # 125
  0.6660000000000001    0.5610000000000002    0.6740000000000002 # 126
  0.8730000000000000    0.8850000000000000    0.0000000000000000 # 127
  0.9399999999999999    0.1800000000000000    0.5000000000000000 # 128
  0.7380000000000000    0.8060000000000002    0.2410000000000000 # 129
  0.5020000000000000    0.6170000000000000    0.1490000000000000 # 130
  0.8950000000000000    0.3340000000000001    0.3260000000000000 # 131
  0.1270000000000000    0.1150000000000000    0.0000000000000000 # 132
  0.0600000000000000    0.8200000000000000    0.5000000000000000 # 133
  0.2620000000000000    0.1940000000000000    0.7590000000000000 # 134
  0.4980000000000000    0.3830000000000000    0.8510000000000000 # 135
  0.1050000000000000    0.6660000000000001    0.6740000000000002 # 136
  0.9319999999999999    0.7380000000000000    0.2410000000000000 # 137
  0.8850000000000000    0.5020000000000000    0.1490000000000000 # 138
  0.5610000000000002    0.8950000000000000    0.3260000000000000 # 139
  0.0680000000000000    0.2620000000000000    0.7590000000000000 # 140
  0.1150000000000000    0.4980000000000000    0.8510000000000000 # 141
  0.4390000000000000    0.1050000000000000    0.6740000000000002 # 142
  0.1940000000000000    0.9319999999999999    0.2410000000000000 # 143
  0.3830000000000000    0.8850000000000000    0.1490000000000000 # 144
  0.6660000000000001    0.5610000000000002    0.3260000000000000 # 145
  0.8060000000000002    0.0680000000000000    0.7590000000000000 # 146
  0.6170000000000000    0.1150000000000000    0.8510000000000000 # 147
  0.3340000000000001    0.4390000000000000    0.6740000000000002 # 148
  0.2620000000000000    0.1940000000000000    0.2410000000000000 # 149
  0.4980000000000000    0.3830000000000000    0.1490000000000000 # 150
  0.1050000000000000    0.6660000000000001    0.3260000000000000 # 151
  0.7380000000000000    0.8060000000000002    0.7590000000000000 # 152
  0.5020000000000000    0.6170000000000000    0.8510000000000000 # 153
  0.8950000000000000    0.3340000000000001    0.6740000000000002 # 154
  0.0000000000000000    0.0000000000000000    0.3240000000000000 # 21
  0.3950000000000001    0.1250000000000000    0.0000000000000000 # 22
  0.1230000000000000    0.4640000000000000    0.5000000000000000 # 23
  0.6050000000000000    0.8750000000000000    0.0000000000000000 # 24
  0.8770000000000000    0.5360000000000000    0.5000000000000000 # 25
  0.2700000000000000    0.3950000000000001    0.0000000000000000 # 26
  0.6590000000000000    0.1230000000000000    0.5000000000000000 # 27
  0.0000000000000000    0.0000000000000000    0.6760000000000002 # 28
  0.7300000000000000    0.6050000000000000    0.0000000000000000 # 29
  0.3410000000000001    0.8770000000000000    0.5000000000000000 # 210
  0.8750000000000000    0.2700000000000000    0.0000000000000000 # 211
  0.5360000000000000    0.6590000000000000    0.5000000000000000 # 212
  0.1250000000000000    0.7300000000000000    0.0000000000000000 # 213
  0.4640000000000000    0.3410000000000001    0.5000000000000000 # 214
