POSCAR generated by cell class
1.0
  9.7682954036068192    0.0000000000000000    0.0000000000000000
 -4.8841477018033999    8.4595919711942695    0.0000000000000000
  0.0000000000000000    0.0000000000000000    9.3407956047634304
 4 18 36
Direct
  0.3333333333333333    0.6666666666666666    0.2500000000000000 # 11
  0.6666666666666666    0.3333333333333333    0.7500000000000000 # 12
  0.6666666666666666    0.3333333333333333    0.2500000000000000 # 13
  0.3333333333333333    0.6666666666666666    0.7500000000000000 # 14
  0.5000000000000000    0.5000000000000000    0.2500000000000000 # 21
  0.3724000000000000    0.2662000000000000    0.0000000000000000 # 22
  0.5000000000000000    0.5000000000000000    0.7500000000000000 # 23
  0.6276000000000002    0.7338000000000000    0.0000000000000000 # 24
  0.0000000000000000    0.5000000000000000    0.2500000000000000 # 25
  0.1062000000000000    0.3724000000000000    0.0000000000000000 # 26
  0.0000000000000000    0.5000000000000000    0.7500000000000000 # 27
  0.8938000000000001    0.6276000000000002    0.0000000000000000 # 28
  0.5000000000000000    0.0000000000000000    0.2500000000000000 # 29
  0.7338000000000000    0.1062000000000000    0.0000000000000000 # 210
  0.5000000000000000    0.0000000000000000    0.7500000000000000 # 211
  0.2662000000000000    0.8938000000000001    0.0000000000000000 # 212
  0.1062000000000000    0.7338000000000000    0.5000000000000000 # 213
  0.8938000000000001    0.2662000000000000    0.5000000000000000 # 214
  0.6276000000000002    0.8938000000000001    0.5000000000000000 # 215
  0.3724000000000000    0.1062000000000000    0.5000000000000000 # 216
  0.2662000000000000    0.3724000000000000    0.5000000000000000 # 217
  0.7338000000000000    0.6276000000000002    0.5000000000000000 # 218
  0.4853000000000000    0.3492000000000000    0.1439000000000000 # 31
  0.2304000000000000    0.3081000000000000    0.0000000000000000 # 32
  0.5147000000000002    0.6508000000000002    0.8561000000000000 # 33
  0.7696000000000000    0.6919000000000000    0.0000000000000000 # 34
  0.1361000000000000    0.4853000000000000    0.1439000000000000 # 35
  0.9223000000000000    0.2304000000000000    0.0000000000000000 # 36
  0.8639000000000000    0.5147000000000002    0.8561000000000000 # 37
  0.0777000000000000    0.7696000000000000    0.0000000000000000 # 38
  0.6508000000000002    0.1361000000000000    0.1439000000000000 # 39
  0.6919000000000000    0.9223000000000000    0.0000000000000000 # 310
  0.3492000000000000    0.8639000000000000    0.8561000000000000 # 311
  0.3081000000000000    0.0777000000000000    0.0000000000000000 # 312
  0.5147000000000002    0.6508000000000002    0.1439000000000000 # 313
  0.4853000000000000    0.3492000000000000    0.8561000000000000 # 314
  0.8639000000000000    0.5147000000000002    0.1439000000000000 # 315
  0.1361000000000000    0.4853000000000000    0.8561000000000000 # 316
  0.3492000000000000    0.8639000000000000    0.1439000000000000 # 317
  0.6508000000000002    0.1361000000000000    0.8561000000000000 # 318
  0.1361000000000000    0.6508000000000002    0.3561000000000001 # 319
  0.9223000000000000    0.6919000000000000    0.5000000000000000 # 320
  0.8639000000000000    0.3492000000000000    0.6439000000000000 # 321
  0.0777000000000000    0.3081000000000000    0.5000000000000000 # 322
  0.5147000000000002    0.8639000000000000    0.3561000000000001 # 323
  0.7696000000000000    0.0777000000000000    0.5000000000000000 # 324
  0.4853000000000000    0.1361000000000000    0.6439000000000000 # 325
  0.2304000000000000    0.9223000000000000    0.5000000000000000 # 326
  0.3492000000000000    0.4853000000000000    0.3561000000000001 # 327
  0.3081000000000000    0.2304000000000000    0.5000000000000000 # 328
  0.6508000000000002    0.5147000000000002    0.6439000000000000 # 329
  0.6919000000000000    0.7696000000000000    0.5000000000000000 # 330
  0.6508000000000002    0.5147000000000002    0.3561000000000001 # 331
  0.3492000000000000    0.4853000000000000    0.6439000000000000 # 332
  0.8639000000000000    0.3492000000000000    0.3561000000000001 # 333
  0.1361000000000000    0.6508000000000002    0.6439000000000000 # 334
  0.4853000000000000    0.1361000000000000    0.3561000000000001 # 335
  0.5147000000000002    0.8639000000000000    0.6439000000000000 # 336
