group 10
   1.00000000000000
     10.0000000000000000     0.0000000000000000     0.0000000000000000
      0.0000000000000000    10.0000000000000000     0.0000000000000000
      0.0000000000000000     0.0000000000000000    10.0000000000000000
   8   8   8   8   8   8
Direct
  0.1414200000000000  0.2236000000000000  0.3316600000000000
  0.8585800000000000  0.2236000000000000  0.6683400000000000
  0.8316600000000000  0.7236000000000000  0.3585800000000000
  0.1683400000000000  0.7236000000000000  0.6414200000000000
  0.8585800000000000  0.7764000000000000  0.6683400000000000
  0.1414200000000000  0.7764000000000000  0.3316600000000000
  0.1683400000000000  0.2764000000000000  0.6414200000000000
  0.8316600000000000  0.2764000000000000  0.3585800000000000
  0.8585800000000000  0.7764000000000000  0.3316600000000000
  0.1414200000000000  0.7764000000000000  0.6683400000000000
  0.8316600000000000  0.2764000000000000  0.6414200000000000
  0.1683400000000000  0.2764000000000000  0.3585800000000000
  0.1414200000000000  0.2236000000000000  0.6683400000000000
  0.8585800000000000  0.2236000000000000  0.3316600000000000
  0.1683400000000000  0.7236000000000000  0.3585800000000000
  0.8316600000000000  0.7236000000000000  0.6414200000000000
  0.3316600000000000  0.1414200000000000  0.2236000000000000
  0.6683400000000000  0.1414200000000000  0.7764000000000000
  0.7236000000000000  0.6414200000000000  0.1683400000000000
  0.2764000000000000  0.6414200000000000  0.8316600000000000
  0.6683400000000000  0.8585800000000000  0.7764000000000000
  0.3316600000000000  0.8585800000000000  0.2236000000000000
  0.2764000000000000  0.3585800000000000  0.8316600000000000
  0.7236000000000000  0.3585800000000000  0.1683400000000000
  0.3316600000000000  0.8585800000000000  0.7764000000000000
  0.6683400000000000  0.8585800000000000  0.2236000000000000
  0.2764000000000000  0.3585800000000000  0.1683400000000000
  0.7236000000000000  0.3585800000000000  0.8316600000000000
  0.6683400000000000  0.1414200000000000  0.2236000000000000
  0.3316600000000000  0.1414200000000000  0.7764000000000000
  0.7236000000000000  0.6414200000000000  0.8316600000000000
  0.2764000000000000  0.6414200000000000  0.1683400000000000
  0.2236000000000000  0.3316600000000000  0.1414200000000000
  0.7764000000000000  0.3316600000000000  0.8585800000000000
  0.6414200000000000  0.8316600000000000  0.2764000000000000
  0.3585800000000000  0.8316600000000000  0.7236000000000000
  0.7764000000000000  0.6683400000000000  0.8585800000000000
  0.2236000000000000  0.6683400000000000  0.1414200000000000
  0.3585800000000000  0.1683400000000000  0.7236000000000000
  0.6414200000000000  0.1683400000000000  0.2764000000000000
  0.2236000000000000  0.6683400000000000  0.8585800000000000
  0.7764000000000000  0.6683400000000000  0.1414200000000000
  0.3585800000000000  0.1683400000000000  0.2764000000000000
  0.6414200000000000  0.1683400000000000  0.7236000000000000
  0.7764000000000000  0.3316600000000000  0.1414200000000000
  0.2236000000000000  0.3316600000000000  0.8585800000000000
  0.6414200000000000  0.8316600000000000  0.7236000000000000
  0.3585800000000000  0.8316600000000000  0.2764000000000000
