Al12 O18
   1.00000000000000
     2.3920959566242201   -4.1432314236414918    0.0000000000000000
     2.3920959566242201    4.1432314236414918   -0.0000000000000000
     0.0000000000000000    0.0000000000000000   13.0584997064738300
   Al   O
    12    18
Direct
  0.0000000000000000  0.0000000000000000  0.1479589390489843
  0.3333330000000032  0.6666669999999968  0.0187080609510125
  0.3333330000000032  0.6666669999999968  0.3146259390489881
  0.6666669999999968  0.3333330000000032  0.1853740609510118
  0.6666669999999968  0.3333330000000032  0.4812919390489874
  0.0000000000000000  0.0000000000000000  0.3520410609510158
  0.0000000000000000  0.0000000000000000  0.6479589390489844
  0.3333330000000032  0.6666669999999968  0.5187080609510124
  0.3333330000000032  0.6666669999999968  0.8146259390489883
  0.6666669999999968  0.3333330000000032  0.6853740609510117
  0.6666669999999968  0.3333330000000032  0.9812919390489876
  0.0000000000000000  0.0000000000000000  0.8520410609510156
  0.3063363494007612  0.0000000000000189  0.2500000000000000
  0.6666669999999779  0.0269966505992350  0.0833330000000032
  0.0000000000000189  0.3063363494007612  0.2500000000000000
  0.6936636505992201  0.6936636505992201  0.2500000000000000
  0.9730033494007838  0.6396693494007831  0.0833330000000032
  0.3603306505992356  0.3333329999999844  0.0833330000000032
  0.9730033494007649  0.3333330000000220  0.5833330000000032
  0.3333329999999844  0.3603306505992356  0.4166669999999968
  0.6666670000000157  0.6396693494007643  0.5833330000000032
  0.3603306505992167  0.0269966505992161  0.5833330000000032
  0.6396693494007831  0.9730033494007838  0.4166669999999968
  0.0269966505992350  0.6666669999999779  0.4166669999999968
  0.6396693494007643  0.6666670000000157  0.9166669999999968
 -0.0000000000000189  0.6936636505992390  0.7500000000000000
  0.3333330000000220  0.9730033494007649  0.9166669999999968
  0.0269966505992161  0.3603306505992167  0.9166669999999968
  0.3063363494007801  0.3063363494007801  0.7500000000000000
  0.6936636505992390 -0.0000000000000189  0.7500000000000000

