Al36 O54
1.0
   4.1432315010944283    0.0000000000000000   -2.3920958224718043
   0.0000000000000021   13.0584997064738300    0.0000000000000008
   0.0000000000000000    0.0000000000000000   33.4893415146052718
Al O
36 54
direct
   0.0000000000000000    0.8520410609510133    0.1190476190476190 Al
   0.6666666666666667    0.9812922723823201    0.0238095238095239 Al
   0.6666666666666667    0.6853743942843467    0.0238095238095239 Al
   0.3333333333333335    0.8146256057156533    0.0714285714285714 Al
   0.3333333333333335    0.5187077276176800    0.0714285714285714 Al
   0.0000000000000000    0.6479589390489868    0.1190476190476190 Al
   0.0000000000000000    0.3520410609510135    0.1190476190476190 Al
   0.6666666666666667    0.4812922723823201    0.0238095238095239 Al
   0.6666666666666667    0.1853743942843467    0.0238095238095239 Al
   0.3333333333333335    0.3146256057156533    0.0714285714285714 Al
   0.3333333333333335    0.0187077276176800    0.0714285714285714 Al
   0.0000000000000000    0.1479589390489868    0.1190476190476190 Al
   0.0000000000000000    0.8520410609510133    0.2619047619047619 Al
   0.6666666666666667    0.9812922723823201    0.1666666666666667 Al
   0.6666666666666667    0.6853743942843467    0.1666666666666667 Al
   0.3333333333333335    0.8146256057156533    0.2142857142857143 Al
   0.3333333333333335    0.5187077276176800    0.2142857142857143 Al
   0.0000000000000000    0.6479589390489868    0.2619047619047619 Al-OVERLAP
   0.0000000000000000    0.3520410609510135    0.2619047619047619 Al
   0.6666666666666667    0.4812922723823201    0.1666666666666667 Al
   0.6666666666666667    0.1853743942843467    0.1666666666666667 Al
   0.3333333333333335    0.3146256057156533    0.2142857142857143 Al
   0.3333333333333335    0.0187077276176800    0.2142857142857143 Al
   0.0000000000000000    0.1479589390489868    0.2619047619047619 Al
   0.0000000000000000    0.8520410609510133    0.2619047619047619 Al
   0.6666666666666667    0.9812922723823201    0.3095238095238095 Al
   0.6666666666666667    0.6853743942843467    0.3095238095238095 Al
   0.3333333333333335    0.8146256057156533    0.3571428571428571 Al
   0.3333333333333335    0.5187077276176800    0.3571428571428571 Al
   0.0000000000000000    0.6479589390489868    0.2619047619047619 Al-OVERLAP
   0.0000000000000000    0.3520410609510135    0.2619047619047619 Al
   0.6666666666666667    0.4812922723823201    0.3095238095238095 Al
   0.6666666666666667    0.1853743942843467    0.3095238095238095 Al
   0.3333333333333335    0.3146256057156533    0.3571428571428571 Al
   0.3333333333333335    0.0187077276176800    0.3571428571428571 Al
   0.0000000000000000    0.1479589390489868    0.2619047619047619 Al
   0.6936636505992461    0.7500000000000000    0.1190476190476190 O
   0.3333333333333334    0.9166666666666667    0.1151909070572505 O
   0.0000000000000000    0.7500000000000000    0.0752852834189399 O
   0.3063363494007539    0.7500000000000000    0.0199528118191553 O
   0.0269969839325794    0.9166666666666667    0.0276662357998923 O
   0.6396696827340873    0.9166666666666667    0.0714285714285714 O
   0.0269969839325794    0.4166666666666669    0.0714285714285714 O
   0.6666666666666667    0.5833333333333334    0.0675718594382029 O
   0.3333333333333334    0.4166666666666669    0.0276662357998923 O
   0.6396696827340873    0.4166666666666669    0.1151909070572505 O
   0.3603303172659127    0.5833333333333334    0.1229043310379875 O
   0.9730030160674206    0.5833333333333334    0.0238095238095238 O
   0.3603303172659126    0.0833333333333335    0.0238095238095238 O
   0.0000000000000000    0.2500000000000001    0.0199528118191553 O
   0.6666666666666665    0.0833333333333335    0.1229043310379875 O
   0.9730030160674206    0.0833333333333335    0.0675718594382029 O
   0.6936636505992462    0.2500000000000001    0.0752852834189399 O
   0.3063363494007540    0.2500000000000001    0.1190476190476190 O
   0.6936636505992461    0.7500000000000000    0.2619047619047619 O
   0.3333333333333334    0.9166666666666667    0.2580480499143934 O
   0.0000000000000000    0.7500000000000000    0.2181424262760828 O
   0.3063363494007539    0.7500000000000000    0.1628099546762982 O
   0.0269969839325794    0.9166666666666667    0.1705233786570351 O
   0.6396696827340873    0.9166666666666667    0.2142857142857143 O
   0.0269969839325794    0.4166666666666669    0.2142857142857142 O
   0.6666666666666667    0.5833333333333334    0.2104290022953458 O
   0.3333333333333334    0.4166666666666669    0.1705233786570351 O
   0.6396696827340873    0.4166666666666669    0.2580480499143934 O
   0.3603303172659127    0.5833333333333334    0.2657614738951304 O
   0.9730030160674206    0.5833333333333334    0.1666666666666667 O
   0.3603303172659126    0.0833333333333335    0.1666666666666667 O
   0.0000000000000000    0.2500000000000001    0.1628099546762982 O
   0.6666666666666665    0.0833333333333335    0.2657614738951304 O
   0.9730030160674206    0.0833333333333335    0.2104290022953458 O
   0.6936636505992462    0.2500000000000001    0.2181424262760827 O
   0.3063363494007540    0.2500000000000001    0.2619047619047619 O
   0.6936636505992461    0.7500000000000000    0.4047619047619048 O
   0.3333333333333334    0.9166666666666667    0.4009051927715362 O
   0.0000000000000000    0.7500000000000000    0.3609995691332256 O
   0.3063363494007539    0.7500000000000000    0.3056670975334410 O
   0.0269969839325794    0.9166666666666667    0.3133805215141780 O
   0.6396696827340873    0.9166666666666667    0.3571428571428571 O
   0.0269969839325794    0.4166666666666669    0.3571428571428571 O
   0.6666666666666667    0.5833333333333334    0.3532861451524886 O
   0.3333333333333334    0.4166666666666669    0.3133805215141779 O
   0.6396696827340873    0.4166666666666669    0.4009051927715362 O
   0.3603303172659127    0.5833333333333334    0.4086186167522732 O
   0.9730030160674206    0.5833333333333334    0.3095238095238095 O
   0.3603303172659126    0.0833333333333335    0.3095238095238095 O
   0.0000000000000000    0.2500000000000001    0.3056670975334410 O
   0.6666666666666665    0.0833333333333335    0.4086186167522732 O
   0.9730030160674206    0.0833333333333335    0.3532861451524886 O
   0.6936636505992462    0.2500000000000001    0.3609995691332256 O
   0.3063363494007540    0.2500000000000001    0.4047619047619048 O
