Al36 O54
1.0
   4.1432315010944283    0.0000000000000000   -2.3920958224718043
   0.0000000000000021   13.0584997064738300    0.0000000000000008
   0.0000000000000000    0.0000000000000000   33.4893415146052718
Al O
36 54
direct
   0.0000000000000000    0.8520410609510133    0.1409287868619586 Al
   0.6666666666666667    0.9812922723823201    0.0456906916238635 Al
   0.6666666666666667    0.6853743942843467    0.0456906916238635 Al
   0.3333333333333335    0.8146256057156533    0.0933097392429110 Al
   0.3333333333333335    0.5187077276176800    0.0933097392429110 Al
   0.0000000000000000    0.6479589390489868    0.1409287868619586 Al
   0.0000000000000000    0.3520410609510135    0.1409287868619586 Al
   0.6666666666666667    0.4812922723823201    0.0456906916238635 Al
   0.6666666666666667    0.1853743942843467    0.0456906916238635 Al
   0.3333333333333335    0.3146256057156533    0.0933097392429110 Al
   0.3333333333333335    0.0187077276176800    0.0933097392429110 Al
   0.0000000000000000    0.1479589390489868    0.1409287868619586 Al
   0.0000000000000000    0.8520410609510133    0.2837859297191014 Al
   0.6666666666666667    0.9812922723823201    0.1885478344810063 Al
   0.6666666666666667    0.6853743942843467    0.1885478344810063 Al
   0.3333333333333335    0.8146256057156533    0.2361668821000538 Al
   0.3333333333333335    0.5187077276176800    0.2361668821000538 Al
   0.0000000000000000    0.6479589390489868    0.2837859297191014 Al
   0.0000000000000000    0.3520410609510135    0.2837859297191014 Al
   0.6666666666666667    0.4812922723823201    0.1885478344810063 Al
   0.6666666666666667    0.1853743942843467    0.1885478344810063 Al
   0.3333333333333335    0.3146256057156533    0.2361668821000538 Al
   0.3333333333333335    0.0187077276176800    0.2361668821000538 Al
   0.0000000000000000    0.1479589390489868    0.2837859297191014 Al
   0.0000000000000000    0.8520410609510133    0.2837859297191014 Al
   0.6666666666666667    0.9812922723823201    0.3314049773381491 Al
   0.6666666666666667    0.6853743942843467    0.3314049773381491 Al
   0.3333333333333335    0.8146256057156533    0.3790240249571967 Al
   0.3333333333333335    0.5187077276176800    0.2361668821000538 Al
   0.0000000000000000    0.6479589390489868    0.2837859297191014 Al
   0.0000000000000000    0.3520410609510135    0.2837859297191014 Al
   0.6666666666666667    0.4812922723823201    0.3314049773381491 Al
   0.6666666666666667    0.1853743942843467    0.3314049773381491 Al
   0.3333333333333335    0.3146256057156533    0.3790240249571967 Al
   0.3333333333333335    0.0187077276176800    0.2361668821000538 Al
   0.0000000000000000    0.1479589390489868    0.2837859297191014 Al
   0.6936636505992461    0.7500000000000000    0.1409287868619586 O
   0.3333333333333334    0.9166666666666667    0.1370720748715901 O
   0.0000000000000000    0.7500000000000000    0.0971664512332795 O
   0.3063363494007539    0.7500000000000000    0.0418339796334949 O
   0.0269969839325794    0.9166666666666667    0.0495474036142319 O
   0.6396696827340873    0.9166666666666667    0.0933097392429110 O
   0.0269969839325794    0.4166666666666669    0.0933097392429110 O
   0.6666666666666667    0.5833333333333334    0.0894530272525425 O
   0.3333333333333334    0.4166666666666669    0.0495474036142318 O
   0.6396696827340873    0.4166666666666669    0.1370720748715901 O
   0.3603303172659127    0.5833333333333334    0.0019283559951842 O
   0.9730030160674206    0.5833333333333334    0.0456906916238634 O
   0.3603303172659126    0.0833333333333335    0.0456906916238634 O
   0.0000000000000000    0.2500000000000001    0.0418339796334949 O
   0.6666666666666665    0.0833333333333335    0.0019283559951842 O
   0.9730030160674206    0.0833333333333335    0.0894530272525425 O
   0.6936636505992462    0.2500000000000001    0.0971664512332795 O
   0.3063363494007540    0.2500000000000001    0.1409287868619586 O
   0.6936636505992461    0.7500000000000000    0.2837859297191014 O
   0.3333333333333334    0.9166666666666667    0.2799292177287330 O
   0.0000000000000000    0.7500000000000000    0.2400235940904223 O
   0.3063363494007539    0.7500000000000000    0.1846911224906377 O
   0.0269969839325794    0.9166666666666667    0.1924045464713747 O
   0.6396696827340873    0.9166666666666667    0.2361668821000538 O
   0.0269969839325794    0.4166666666666669    0.2361668821000538 O
   0.6666666666666667    0.5833333333333334    0.2323101701096854 O
   0.3333333333333334    0.4166666666666669    0.1924045464713747 O
   0.6396696827340873    0.4166666666666669    0.2799292177287330 O
   0.3603303172659127    0.5833333333333334    0.1447854988523271 O
   0.9730030160674206    0.5833333333333334    0.1885478344810063 O
   0.3603303172659126    0.0833333333333335    0.1885478344810062 O
   0.0000000000000000    0.2500000000000001    0.1846911224906377 O
   0.6666666666666665    0.0833333333333335    0.1447854988523271 O
   0.9730030160674206    0.0833333333333335    0.2323101701096854 O
   0.6936636505992462    0.2500000000000001    0.2400235940904223 O
   0.3063363494007540    0.2500000000000001    0.2837859297191014 O
   0.6936636505992461    0.7500000000000000    0.4266430725762443 O
   0.3333333333333334    0.9166666666666667    0.4227863605858758 O
   0.0000000000000000    0.7500000000000000    0.3828807369475652 O
   0.3063363494007539    0.7500000000000000    0.3275482653477806 O
   0.0269969839325794    0.9166666666666667    0.3352616893285176 O
   0.6396696827340873    0.9166666666666667    0.3790240249571967 O
   0.0269969839325794    0.4166666666666669    0.3790240249571967 O
   0.6666666666666667    0.5833333333333334    0.3751673129668282 O
   0.3333333333333334    0.4166666666666669    0.3352616893285175 O
   0.6396696827340873    0.4166666666666669    0.4227863605858758 O
   0.3603303172659127    0.5833333333333334    0.2876426417094700 O
   0.9730030160674206    0.5833333333333334    0.3314049773381491 O
   0.3603303172659126    0.0833333333333335    0.3314049773381491 O
   0.0000000000000000    0.2500000000000001    0.3275482653477806 O
   0.6666666666666665    0.0833333333333335    0.2876426417094700 O
   0.9730030160674206    0.0833333333333335    0.3751673129668282 O
   0.6936636505992462    0.2500000000000001    0.3828807369475652 O
   0.3063363494007540    0.2500000000000001    0.4266430725762443 O
